50
frame
CG 48.223821 8.751008 24.019334
CG 43.832063 77.440374 30.373424
CG 63.496194 61.525247 61.645548
CG 63.471810 60.011567 62.511289
CG 62.490071 60.033973 63.937134
CG 83.231734 45.321185 97.214547
CG 61.683769 58.276146 57.578589
CG 63.288288 61.772064 62.478661
CG 77.123964 116.465876 100.796515
CG 61.369614 66.069284 67.195873
CG 62.279549 63.089326 63.613940
CG 63.955973 62.434075 63.091029
CG 58.445364 61.795669 68.569010
CG 63.249445 61.703213 63.337319
CG 55.578554 36.321349 97.266055
CG 58.844488 65.741110 63.842282
CG 62.967949 64.203654 64.416357
CG 63.885980 64.299835 64.770958
CG 64.271719 63.387582 64.598445
CG 80.528451 88.344365 27.585239
CG 64.463902 62.189672 64.757706
CG 63.503355 61.985273 64.868361
CG 63.973158 62.584706 65.500049
CG 63.631553 62.162152 66.349643
CG 117.632629 45.180384 4.076193
CG 62.655860 61.947519 65.609327
CG 9.558324 20.529884 103.432657
CG 64.244400 60.989260 66.550316
CG 63.456701 60.515962 66.113177
CG 62.592115 60.936008 65.769099
CG 62.592422 61.563770 66.639431
CG 63.279050 118.587700 90.087156
CG 63.401199 60.718476 65.233667
CG 62.639811 60.134467 65.491807
CG 62.082978 59.943672 66.292249
CG 61.781817 60.534897 65.530729
CG 61.570818 59.625311 65.199525
CG 56.299287 44.563337 74.205859
CG 82.339862 31.138527 51.737867
CG 62.293966 57.440975 64.917371
CG 37.630494 87.617821 93.524192
CG 61.332193 58.608975 64.969406
CG 67.915317 73.278846 56.432432
CG 63.507930 58.589327 64.967777
CG 80.520657 46.751934 11.520094
CG 62.752053 58.152329 63.145681
CG 90.801602 103.746505 33.594868
CG 62.560641 59.215119 63.883673
CG 19.094490 22.405245 5.550001
CG 61.394953 57.926077 63.427962
50
frame
CG 53.361760 63.942425 46.860763
CG 59.727697 99.018518 48.313635
CG 53.262938 93.647687 41.423427
CG 61.641758 67.465777 59.774883
CG 66.586397 58.542330 66.362637
CG 57.056010 69.595230 53.126587
CG 72.599144 78.681106 86.366545
CG 72.042527 72.435616 82.969772
CG 60.254812 43.140256 50.845252
CG 79.277192 69.103436 54.625906
CG 89.292495 32.508206 48.491193
CG 68.592118 64.125226 58.660046
CG 29.393901 64.854737 97.977950
CG 15.093944 73.051223 105.320537
CG 14.977783 86.350759 85.494830
CG 28.237183 61.389547 97.088639
CG 25.594880 104.223607 106.407544
CG 52.055919 72.874382 72.115696
CG 65.812141 70.877512 58.067828
CG 58.737371 55.003326 76.627160
CG 67.969352 69.057857 55.246579
CG 73.379679 70.227005 48.437208
CG 83.304145 57.614008 41.806281
CG 72.235708 55.874650 52.842014
CG 28.110743 55.686550 95.596154
CG 64.471785 49.849118 58.105144
CG 99.856006 71.096619 29.921168
CG 54.586352 51.147284 69.162155
CG 45.102944 51.441448 80.308728
CG 59.744857 77.902508 77.194317
CG 63.269911 74.239097 71.074253
CG 68.632588 39.430535 53.982116
CG 96.045927 58.930955 48.726981
CG 103.933080 62.600679 45.008872
CG 95.828846 48.526494 43.678383
CG 65.299461 51.535331 60.571048
CG 64.098841 47.660803 58.972606
CG 65.201678 59.674354 58.289579
CG 48.270006 72.862276 83.916031
CG 65.362315 53.840463 74.959612
CG 93.171273 42.111231 49.405078
CG 76.673973 65.938394 62.397729
CG 70.241512 59.931915 56.466682
CG 69.887254 65.050038 48.609608
CG 68.028199 82.553335 67.890935
CG 70.627589 64.913737 40.058087
CG 44.659548 27.522362 35.608933
CG 59.695739 58.990647 38.186757
CG 82.317935 82.550263 66.923562
CG 40.117120 41.960175 27.952394
50
frame
CG 67.628540 60.234129 69.570360
CG 67.234330 49.118733 71.683324
CG 60.245922 63.757018 57.283626
CG 54.182202 107.329249 41.068061
CG 58.135287 112.006053 55.662013
CG 56.689457 92.683327 54.190376
CG 62.363380 50.695461 48.966788
CG 71.657490 67.383507 40.391579
CG 86.843792 42.187802 43.060630
CG 71.712619 30.852828 71.395534
CG 44.523908 117.268789 66.009984
CG 26.992785 85.778578 99.080884
CG 50.005470 93.984124 63.412921
CG 4.875394 82.194449 109.002121
CG 13.267570 80.832466 104.638672
CG 117.327462 89.753790 114.602319
CG 6.360268 54.336989 100.903693
CG 17.193249 53.035980 111.417604
CG 26.541378 62.957921 102.707327
CG 48.591999 60.997229 83.113609
CG 75.633255 61.788377 48.996046
CG 65.359203 49.111891 64.005596
CG 37.365389 63.019725 81.475379
CG 64.680816 59.853973 51.671321
CG 75.852574 76.890692 54.763173
CG 64.471939 58.346115 58.717151
CG 53.815286 76.467919 79.568245
CG 69.247196 71.942107 60.884271
CG 95.928578 81.608413 38.742486
CG 66.743529 31.581874 52.989514
CG 80.971091 40.799705 56.181712
CG 103.256740 32.216276 36.195689
CG 86.175205 54.520657 51.256104
CG 102.370917 20.775086 28.063700
CG 88.636904 52.998709 48.038724
CG 110.773459 56.994519 36.012098
CG 82.723868 65.326286 56.830358
CG 74.778892 61.137206 64.121364
CG 80.000200 55.825004 50.884961
CG 85.167124 65.065209 53.961699
CG 73.101929 53.520669 54.110580
CG 88.971578 53.618817 51.883982
CG 88.533895 54.845092 58.724653
CG 79.977073 68.181466 46.806412
CG 43.571780 41.304714 66.140482
CG 58.466782 60.239318 39.320139
CG 63.312305 68.300861 85.948505
CG 53.049201 48.787199 22.225739
CG 58.060680 44.002812 43.727803
CG 85.352448 85.091921 47.810517
50
frame
CG 72.842499 55.063112 79.537393
CG 61.369449 69.790570 61.667112
CG 72.044276 82.030630 80.773194
CG 66.074696 61.660712 73.156575
CG 55.228687 59.926645 33.887873
CG 73.514799 83.622014 34.772511
CG 67.454470 92.365387 13.266651
CG 56.609164 36.161768 41.162522
CG 38.561966 57.333739 78.005738
CG 21.752420 47.635589 65.671431
CG 34.929091 99.088086 87.160607
CG 26.922018 93.897479 86.849232
CG 3.871727 87.816580 106.610118
CG 34.403431 102.609613 77.766477
CG 21.665527 86.216158 98.679785
CG 14.473251 73.166122 104.141007
CG 11.941023 46.282620 107.858322
CG 119.360849 50.619738 113.131018
CG 13.931246 40.993617 99.402656
CG 22.594546 54.271935 91.263153
CG 119.369317 47.796257 11.139735
CG 32.079775 63.073677 90.448074
CG 76.091484 67.749444 55.232664
CG 49.844383 68.419103 83.803983
CG 68.538279 65.826724 51.808212
CG 69.082437 98.647779 64.571048
CG 68.324042 64.381465 56.256658
CG 87.174518 57.203139 42.157350
CG 76.929759 40.244500 57.273918
CG 122.260908 52.425146 21.459299
CG 117.480863 38.824218 11.698162
CG 89.944613 43.240118 43.628834
CG 91.068066 10.520748 34.852626
CG 85.401550 53.781468 52.479800
CG 92.792770 51.801874 46.002367
CG 93.140105 41.716649 45.664482
CG 116.260367 54.796525 33.473216
CG 124.931453 58.298356 28.791811
CG 115.451989 50.633696 30.169889
CG 92.022467 53.805378 37.508627
CG 83.323693 76.834471 59.216490
CG 75.494743 58.046809 45.921898
CG 55.897071 47.905698 50.478407
CG 64.328504 34.141718 66.448737
CG 96.695641 52.828361 37.425790
CG 58.397393 45.133226 20.253227
CG 64.508381 63.637671 84.293285
CG 83.611822 83.119102 47.130007
CG 66.453603 74.583267 68.870942
CG 67.277206 46.582336 59.996909
50
frame
CG 62.482682 90.163551 67.527217
CG 76.758207 72.891311 85.385684
CG 64.862368 47.411975 49.812393
CG 78.582367 48.858426 47.493984
CG 87.401065 54.685518 56.386475
CG 55.438229 14.679733 50.208820
CG 34.101293 44.959902 79.132879
CG 22.510788 90.148883 65.551914
CG 11.611516 85.232122 45.848535
CG 18.814756 76.205239 71.814145
CG 124.776279 63.640857 95.796597
CG 22.558916 103.449589 62.891090
CG 21.705813 95.853404 100.718254
CG 20.531139 76.091099 100.791828
CG 10.774404 83.498667 97.064139
CG 37.011160 81.788768 80.600479
CG 22.895524 88.262808 96.777729
CG 27.326085 16.053584 85.446279
CG 110.409376 40.725842 2.807710
CG 98.991938 42.340686 10.506449
CG 23.999229 57.114284 86.325275
CG 10.591197 66.991823 113.235715
CG 9.850456 58.233964 119.936862
CG 51.132435 87.890932 82.313747
CG 53.482224 69.725362 81.740332
CG 74.655654 42.944436 55.385064
CG 105.019346 48.301547 25.530764
CG 104.735131 61.002857 35.513119
CG 106.739840 38.005053 18.910966
CG 93.296317 54.246963 40.167211
CG 86.244062 32.828242 46.747897
CG 107.188288 50.963124 25.332864
CG 117.502705 62.630030 22.419685
CG 94.032284 47.413509 44.529931
CG 113.928775 19.834024 26.820213
CG 105.928785 54.067798 38.594737
CG 116.707226 34.069910 24.260626
CG 109.550448 37.521635 21.871475
CG 112.548117 71.173167 39.319082
CG 114.479059 56.837436 30.083640
CG 101.428599 32.479455 17.204822
CG 69.844902 45.292838 52.197136
CG 90.428543 63.131421 39.344950
CG 66.977938 51.486216 31.036560
CG 60.646119 62.224520 84.440172
CG 101.831675 66.156040 62.977317
CG 95.603557 51.598964 40.367040
CG 67.380174 41.939431 40.960821
CG 81.924938 64.287571 71.710552
CG 61.500411 74.216521 76.378654
50
frame
CG 73.629696 61.645668 57.493652
CG 71.591602 63.777403 39.944459
CG 81.743776 61.689927 54.980614
CG 61.299473 37.929007 63.850875
CG 35.209335 25.324679 88.895108
CG 30.432837 72.340352 91.401122
CG 30.912538 45.081599 80.518400
CG 16.147249 48.550489 82.966774
CG 10.790725 53.396104 96.400573
CG 11.661394 93.554146 67.549921
CG 14.865034 55.111932 7.314126
CG 124.831793 87.521181 19.195728
CG 18.661491 96.046748 26.049114
CG 12.168796 87.473306 115.842738
CG 37.192378 69.104974 89.449460
CG 10.507168 67.477659 101.005109
CG 0.527503 100.240002 100.807331
CG 5.466110 12.839873 116.537485
CG 36.385562 9.307828 79.355319
CG 31.259222 30.569208 93.078696
CG 118.009807 51.374135 123.014070
CG 1.608351 54.622204 116.649798
CG 8.800792 69.120041 105.187714
CG 26.250908 27.068375 92.944721
CG 53.667324 44.578828 84.806318
CG 82.853786 48.037517 54.554589
CG 81.404705 50.022781 60.751082
CG 83.363958 27.907169 42.227911
CG 108.261161 61.911761 30.211042
CG 90.200175 40.600345 33.700783
CG 108.655750 76.395939 29.895743
CG 101.839981 48.711049 38.659130
CG 98.341687 48.733878 46.475493
CG 17.834171 37.725647 122.542713
CG 124.342168 64.903688 16.418983
CG 124.985382 28.536468 9.438285
CG 99.166866 46.238624 36.849852
CG 98.923343 52.781549 42.278028
CG 96.335153 9.364260 11.700337
CG 91.117043 31.374368 31.128475
CG 106.571301 57.263115 32.455684
CG 124.024227 53.639602 8.820621
CG 97.048014 42.311522 48.563081
CG 114.471798 82.555454 60.533545
CG 94.910757 55.712788 21.856370
CG 69.314221 50.816880 65.500549
CG 72.378475 61.700711 64.081018
CG 89.468095 63.381734 101.174205
CG 78.556517 46.214595 42.451753
CG 90.732740 58.963926 50.711330
50
frame
CG 86.464608 31.183387 26.488321
CG 60.447318 27.748481 46.881376
CG 36.446442 42.246450 87.941956
CG 24.318159 78.529053 92.652840
CG 24.717196 73.468697 73.165076
CG 24.960844 50.617741 95.356190
CG 12.116979 59.705870 99.300379
CG 24.223477 58.389989 96.884853
CG 31.072419 67.076856 87.982170
CG 4.561496 29.393689 107.011036
CG 21.381556 41.724551 75.308633
CG 17.566647 80.154609 74.185077
CG 10.916854 48.283095 111.412999
CG 8.366315 74.722508 20.640292
CG 114.846988 84.990842 38.016191
CG 120.143011 78.167634 16.154537
CG 41.654265 124.306904 91.881315
CG 19.778771 18.764685 92.804305
CG 6.031785 23.667442 109.657193
CG 25.966971 24.093590 93.901830
CG 33.075790 9.832805 94.106315
CG 43.989868 3.270742 73.121466
CG 49.602613 13.530957 76.842256
CG 32.385120 35.093576 93.842442
CG 38.841950 32.552407 73.424772
CG 29.055268 30.227977 94.238193
CG 51.057373 40.130332 80.624202
CG 76.473906 54.848846 60.073145
CG 65.417553 56.567028 75.636822
CG 108.103415 53.682817 39.068460
CG 113.088607 46.768341 27.449415
CG 123.236940 50.584122 14.466230
CG 4.390167 55.078347 3.889661
CG 108.308203 54.918677 31.149193
CG 100.158157 50.823619 36.323684
CG 116.059843 51.896034 17.883242
CG 114.671782 37.489648 1.094099
CG 105.970108 15.030322 8.462982
CG 96.877338 47.835702 39.501364
CG 108.470052 42.640487 19.725457
CG 98.797299 28.033713 38.441262
CG 118.449672 56.694163 50.089565
CG 123.708295 64.485977 14.878694
CG 111.473703 32.166089 30.616647
CG 115.870685 54.737019 55.677724
CG 102.303838 71.737788 60.404985
CG 85.552218 55.190188 59.011535
CG 86.559255 62.358194 35.600950
CG 89.179104 62.840825 69.796016
CG 101.612115 33.268221 60.152478
50
frame
CG 15.525494 14.753534 83.169994
CG 36.998770 45.161735 86.451088
CG 28.881883 46.379923 42.475188
CG 27.355329 34.318030 70.058251
CG 20.073588 72.055354 104.586577
CG 14.786954 69.446432 86.518079
CG 28.444345 81.267244 89.099196
CG 12.603446 51.277287 105.693583
CG 12.459430 34.635116 90.930966
CG 42.961084 64.239854 93.091694
CG 15.662383 92.828770 82.199677
CG 19.658246 45.525463 111.599627
CG 120.182440 87.471257 84.276019
CG 1.585411 64.480247 95.021755
CG 13.633003 71.583427 106.870950
CG 30.253483 94.481511 1.718752
CG 107.658333 121.018895 51.122868
CG 22.235984 34.251596 122.642446
CG 39.174313 26.716250 101.415684
CG 28.577167 116.722356 84.965571
CG 65.685955 114.627165 53.140028
CG 56.347026 4.452012 76.561238
CG 53.420875 103.510660 69.890299
CG 58.759626 3.463389 60.317827
CG 38.749021 11.560807 87.519253
CG 35.524250 39.795510 86.846397
CG 30.734567 39.568765 83.661303
CG 42.113745 53.147761 100.550367
CG 74.554002 25.673827 59.204560
CG 90.035303 61.428893 55.807796
CG 90.838767 37.104051 48.222526
CG 108.319864 58.949461 33.546943
CG 109.511641 49.573810 26.385596
CG 97.165343 60.484864 27.938944
CG 122.349259 27.093789 115.602120
CG 85.559358 44.471760 30.950967
CG 102.847782 45.079272 35.362952
CG 119.500396 56.564431 10.011365
CG 2.517791 49.841816 14.111385
CG 124.587245 42.646330 36.249430
CG 124.435913 57.290160 18.942577
CG 90.117872 21.128735 33.995675
CG 112.850692 33.227671 58.554171
CG 107.957317 54.739282 44.739286
CG 108.527043 59.451068 49.715954
CG 5.890475 39.776199 9.255447
CG 12.943538 58.154118 43.482504
CG 112.843056 38.447118 38.761053
CG 112.532657 40.938405 60.307297
CG 82.790871 70.745629 59.676601
50
frame
CG 107.895232 64.308966 107.495416
CG 100.030514 25.154388 92.280223
CG 5.264674 38.972039 115.696468
CG 23.422589 49.862874 79.332118
CG 28.975931 31.268078 54.710068
CG 21.512072 51.495199 83.144367
CG 6.938171 42.330820 92.859452
CG 25.038431 84.854493 71.576442
CG 14.574330 96.556531 95.874688
CG 6.371099 66.201201 92.285422
CG 14.438339 121.760735 123.066787
CG 17.285501 68.562070 95.891396
CG 42.421158 50.752805 99.744525
CG 31.988322 76.736489 89.326203
CG 8.089013 88.421314 90.278098
CG 6.583609 74.478187 89.568756
CG 35.981953 100.144882 83.436988
CG 29.710060 1.930369 5.101714
CG 39.724194 112.793227 113.115144
CG 65.930524 16.670556 100.884264
CG 40.437049 5.159075 97.173232
CG 47.874140 107.355471 66.797891
CG 51.934289 11.154144 68.178706
CG 51.770700 118.007116 77.150989
CG 55.248416 2.276602 72.988266
CG 71.766665 7.625790 61.619234
CG 68.906394 14.046125 73.348636
CG 54.346564 19.291143 61.149418
CG 55.947096 49.756548 70.391414
CG 37.690784 27.708548 86.023895
CG 71.150831 56.350964 63.510339
CG 60.611313 43.937918 66.535487
CG 72.081079 31.041675 48.687435
CG 103.298059 26.732187 16.573790
CG 90.224531 65.040386 47.086662
CG 122.717822 50.394541 7.803384
CG 123.703184 51.254867 8.618993
CG 109.971221 66.707722 57.093576
CG 121.246276 47.259603 21.231164
CG 108.384192 46.519904 18.133199
CG 124.662674 40.492692 42.117273
CG 9.456036 57.290281 30.015937
CG 99.437198 44.368929 38.503595
CG 118.202597 36.376277 31.716489
CG 7.644781 24.175790 19.110589
CG 117.041123 34.867200 54.802101
CG 123.271544 33.123777 28.408906
CG 12.391822 56.837233 54.076689
CG 121.350395 64.410653 20.024253
CG 8.777850 43.732655 38.679748
50
frame
CG 92.562937 44.243541 115.440063
CG 104.070327 75.498120 112.466783
CG 100.671539 47.927010 106.129568
CG 94.365685 37.309437 112.617709
CG 115.722767 30.988341 107.432102
CG 24.296439 46.139668 67.471852
CG 23.633222 62.962005 56.552851
CG 7.600674 57.424853 87.036744
CG 14.550455 71.104372 101.461750
CG 4.064504 105.318924 97.436794
CG 34.086459 39.354882 87.931735
CG 26.045998 76.412063 86.521453
CG 18.564378 77.056047 114.703940
CG 26.325605 74.894042 98.360667
CG 61.231929 61.323204 82.843628
CG 42.251632 89.034012 83.432333
CG 59.993180 38.199188 44.660059
CG 52.236657 97.710176 47.138056
CG 42.045255 120.745415 83.390331
CG 33.757992 110.569779 109.498647
CG 38.556578 4.922707 121.157357
CG 52.502872 20.636082 111.106187
CG 47.913428 10.888695 97.889381
CG 58.811679 4.538810 72.345918
CG 83.751819 5.491110 49.662330
CG 66.823270 105.599343 61.168166
CG 75.199655 4.267784 51.581506
CG 77.935653 123.524471 51.926989
CG 50.503599 20.397674 79.509543
CG 48.845391 21.574006 58.389044
CG 23.248325 23.175492 78.059432
CG 41.560288 9.727472 65.682405
CG 58.956412 60.333817 71.962857
CG 70.115878 49.871974 70.268399
CG 88.620578 41.903328 49.922434
CG 113.687934 54.985957 52.914036
CG 106.383835 65.931879 43.370013
CG 119.203636 30.187548 124.357241
CG 109.328473 53.922602 49.018963
CG 1.434020 69.550690 49.686767
CG 98.703774 45.173629 31.615489
CG 0.377045 50.935307 26.331333
CG 31.324576 40.065030 124.272587
CG 13.838913 29.998182 31.720799
CG 113.961497 30.759378 38.771223
CG 1.837035 46.579223 45.907871
CG 118.298611 37.651031 28.270342
CG 4.327108 36.449943 22.216557
CG 28.322983 33.551372 29.214218
CG 46.269837 49.741419 7.393376
50
frame
CG 98.115522 62.267024 111.297324
CG 88.891663 42.572829 6.649561
CG 81.621496 50.820545 104.870849
CG 106.323588 64.273243 100.899508
CG 96.649267 86.388485 105.277483
CG 76.597844 48.822135 122.263758
CG 117.064453 59.425208 121.862268
CG 11.374209 69.576833 92.076493
CG 28.609092 76.174491 50.934505
CG 44.551632 57.826396 81.522101
CG 6.866288 48.131820 85.250093
CG 23.655520 93.978801 108.643646
CG 43.846557 101.182902 59.295570
CG 50.912480 79.059514 78.691201
CG 51.318106 73.766126 73.291357
CG 86.903755 39.561368 49.645548
CG 50.257856 76.853776 99.105461
CG 52.850853 75.668746 66.949184
CG 57.016386 82.456684 52.636004
CG 39.750316 105.730443 56.997367
CG 56.074153 119.337834 71.901002
CG 43.318503 4.045282 110.805712
CG 71.001828 120.772421 99.223400
CG 72.992012 14.438485 92.395876
CG 55.007570 0.462060 88.049176
CG 70.014973 17.791840 61.360358
CG 59.365006 120.437631 58.377465
CG 51.410082 124.546702 70.617300
CG 57.380416 89.442415 39.496221
CG 69.777862 119.993348 51.998669
CG 56.963241 6.785068 67.913200
CG 56.545166 48.975131 71.009407
CG 46.507404 14.848505 75.033383
CG 49.722007 47.429818 95.460595
CG 79.486449 51.020578 69.576940
CG 52.931253 38.389425 70.050728
CG 84.793421 31.463866 80.150807
CG 110.279858 70.363367 119.817478
CG 104.201936 58.397327 110.831544
CG 119.114455 28.080158 8.381333
CG 29.699469 61.906506 12.096282
CG 124.051023 32.208897 37.274554
CG 111.540260 38.980267 53.648343
CG 4.008113 58.612949 25.071411
CG 24.983152 59.953125 19.852385
CG 20.096077 25.216689 113.654024
CG 31.275228 39.284814 38.116288
CG 34.149012 32.066492 3.523560
CG 40.695339 27.953862 11.300177
CG 18.160189 23.808805 18.072927
50
frame
CG 86.654563 46.419853 119.797090
CG 98.602273 66.757089 100.346824
CG 101.577581 68.548381 114.965301
CG 82.096972 53.520706 122.698155
CG 99.000689 45.865438 114.490683
CG 3.717199 75.251371 93.803439
CG 120.441832 74.272327 79.692056
CG 123.181355 57.471129 96.646576
CG 2.023317 54.425876 114.593452
CG 8.597419 79.594797 89.539527
CG 43.889433 93.205147 69.683127
CG 43.606682 63.772274 63.969833
CG 33.842651 58.439440 90.695449
CG 48.772460 72.032178 75.005317
CG 54.582578 78.789066 75.220321
CG 39.567783 91.043528 84.332394
CG 61.438336 71.466251 50.002443
CG 60.545177 79.056523 63.182160
CG 50.159989 97.598465 83.990351
CG 57.616831 100.015361 87.685851
CG 55.155267 104.332491 81.934909
CG 64.255677 116.069103 67.223093
CG 51.637401 3.981095 80.896943
CG 54.583452 0.543899 84.107665
CG 69.015745 4.975664 76.158462
CG 57.309007 119.682903 82.343421
CG 59.738179 119.635439 67.878696
CG 68.087549 120.580630 51.845214
CG 60.314352 16.435501 71.005585
CG 50.120503 12.379097 68.176000
CG 56.016281 5.478210 59.535085
CG 58.027733 5.053053 70.777985
CG 66.921262 40.384711 72.515490
CG 63.560129 33.150357 63.800955
CG 57.158842 29.399115 85.794951
CG 89.454472 53.428548 101.943884
CG 88.097941 59.717172 99.959241
CG 86.935078 30.181681 93.525353
CG 117.055268 41.964036 117.720561
CG 119.132110 60.466621 8.095783
CG 101.176582 37.834159 21.495887
CG 3.894181 53.027928 15.389386
CG 24.762223 55.211024 7.860501
CG 12.788122 32.267224 22.558927
CG 6.569000 32.659730 31.161644
CG 22.187836 51.957039 32.591177
CG 26.833269 37.764611 0.015567
CG 23.176816 29.541626 16.394994
CG 20.636775 30.370241 20.418391
CG 39.206165 30.532926 9.753728
50
frame
CG 101.099331 73.778538 101.710858
CG 85.104036 55.949082 116.709179
CG 100.819605 45.414120 121.188440
CG 0.807333 72.578146 94.453060
CG 2.695661 63.432878 89.734676
CG 122.048882 55.685834 96.515571
CG 115.754663 46.053367 108.230168
CG 124.761489 82.679455 93.210243
CG 7.810696 91.388911 91.630663
CG 5.633968 65.572225 85.967381
CG 21.449556 58.054232 111.514128
CG 32.830051 62.668706 70.187595
CG 53.441800 70.908405 75.551176
CG 33.276753 72.424373 73.212577
CG 37.706159 65.428512 70.745297
CG 31.630053 101.698488 78.283496
CG 46.196094 106.702165 74.793766
CG 45.223441 114.273550 99.204511
CG 63.845535 93.363454 79.643998
CG 76.480997 92.416926 76.517907
CG 55.265823 104.598517 85.517200
CG 61.536309 98.195126 66.868862
CG 56.017764 106.826254 55.983073
CG 51.460737 100.883775 54.475480
CG 50.854237 115.810009 64.204106
CG 56.867984 111.186791 71.412893
CG 67.484278 20.084145 86.822033
CG 55.320997 15.025063 87.724670
CG 58.084611 29.015666 83.224858
CG 60.309529 13.689205 72.632361
CG 66.404896 41.773261 77.651905
CG 62.075307 8.928220 61.960979
CG 68.273857 11.503457 69.586384
CG 92.905591 14.339254 83.079133
CG 86.803988 45.651241 98.757174
CG 90.808109 25.771316 91.088089
CG 91.024595 33.365660 120.165811
CG 100.325874 48.019601 121.921069
CG 82.807187 41.191417 3.586800
CG 94.213996 45.987513 104.369754
CG 117.007172 45.015277 109.144163
CG 3.285227 53.642691 116.057472
CG 120.747821 31.729863 1.480755
CG 21.359857 46.835088 15.295248
CG 26.910261 35.791074 121.620484
CG 13.344703 30.622698 35.814221
CG 0.175224 28.806646 25.813987
CG 22.574100 48.521153 31.623856
CG 27.966844 40.521770 2.829175
CG 22.889355 37.747919 18.503142
50
frame
CG 101.059719 56.611495 115.994798
CG 8.180266 73.118410 98.483202
CG 1.123952 78.675192 70.588574
CG 122.137520 47.372800 96.362882
CG 119.397691 59.893702 109.228684
CG 117.623217 68.825232 101.169280
CG 16.967603 89.883933 94.740154
CG 7.282353 56.838784 95.766427
CG 9.186763 47.723211 88.601956
CG 31.182001 68.259631 93.192216
CG 7.522312 66.151413 73.855684
CG 4.902496 77.501023 115.590234
CG 9.310360 72.430780 80.240814
CG 28.157477 85.957921 79.528545
CG 32.651807 112.101805 82.335440
CG 52.769224 78.943109 77.386259
CG 32.436536 97.664775 113.495023
CG 52.069423 102.142008 76.935238
CG 51.431356 117.350055 81.198203
CG 38.597045 114.795180 76.795655
CG 73.112183 90.578357 48.726902
CG 55.159009 88.428556 70.577809
CG 60.134525 80.592686 67.310569
CG 63.857352 99.732272 60.519526
CG 52.982454 107.593217 65.481149
CG 54.434832 15.394517 63.197259
CG 42.470494 4.467896 73.574685
CG 55.587630 22.928128 93.445699
CG 67.956067 18.869360 85.485382
CG 72.803562 34.338007 89.546503
CG 69.949273 10.681658 86.634072
CG 94.218803 46.120288 95.969098
CG 92.696727 30.091101 99.836367
CG 80.270225 20.844346 99.562845
CG 109.587608 0.090361 93.355076
CG 93.269575 18.637683 115.733124
CG 90.773208 23.089406 108.839005
CG 90.813541 37.770717 113.764192
CG 100.116222 42.915208 97.312074
CG 106.691191 31.111307 115.734844
CG 108.289322 45.710822 104.802499
CG 103.852248 24.364141 105.418279
CG 124.581159 40.390739 109.089076
CG 118.991397 38.907815 111.749046
CG 119.007881 38.962554 17.854919
CG 16.122472 36.311141 112.105252
CG 35.066731 47.145186 20.134108
CG 8.088016 30.776090 15.762454
CG 5.423100 41.895108 38.782402
CG 8.426408 55.571915 21.426349
50
frame
CG 38.266320 75.627626 68.942054
CG 5.293046 54.284907 86.771360
CG 1.647732 61.067776 115.334806
CG 122.979777 83.915199 99.604897
CG 10.622801 88.816747 78.323448
CG 18.726935 63.689087 93.401022
CG 4.621340 48.611956 89.820264
CG 24.410670 60.638456 95.263642
CG 21.315206 67.938009 91.888329
CG 119.262021 62.599740 104.093363
CG 9.679594 75.029382 84.410547
CG 19.890428 84.144472 74.051947
CG 122.481965 105.942241 100.217423
CG 14.771026 93.984394 115.387688
CG 17.333891 85.964142 114.765758
CG 29.645147 106.776155 98.511682
CG 51.393843 105.028261 61.981851
CG 40.698410 87.147729 71.461117
CG 35.577598 90.157275 75.553130
CG 47.382482 92.254611 65.166184
CG 35.994071 102.060810 78.149696
CG 53.486068 109.578108 60.401275
CG 62.983898 108.366630 64.635052
CG 54.449073 116.969047 81.958052
CG 60.311351 112.229268 74.852175
CG 55.786976 116.742662 84.013423
CG 62.598497 122.552479 68.037027
CG 68.608605 13.863709 56.385252
CG 60.230802 6.378963 84.880433
CG 83.088991 30.719749 109.202375
CG 100.462087 30.241362 112.434322
CG 87.662793 21.125882 123.806749
CG 104.227991 17.266915 115.357232
CG 106.557558 36.268552 121.324912
CG 79.976956 22.555563 120.417233
CG 93.099251 25.022853 108.157378
CG 112.262126 17.451154 84.280044
CG 103.471546 0.542346 92.727221
CG 115.100502 17.414777 100.163940
CG 104.096314 29.287793 102.432687
CG 101.238516 20.780443 107.335292
CG 106.213416 33.416310 111.943227
CG 100.605947 41.526200 113.313006
CG 103.618404 21.802938 97.518327
CG 3.308100 43.843253 106.475858
CG 117.186640 48.202206 121.313567
CG 113.608487 43.034218 1.755599
CG 8.859863 52.253349 123.793262
CG 8.925974 56.545419 22.275147
CG 119.701304 34.889914 38.929552
50
frame
CG 24.268896 59.014453 86.707313
CG 34.950402 89.476367 76.256983
CG 41.291111 82.266723 70.171225
CG 34.296638 70.913951 80.704150
CG 16.432248 46.759316 102.133848
CG 20.792960 75.035831 84.718309
CG 22.173175 69.050527 87.036602
CG 1.079198 72.611611 90.501044
CG 1.413608 76.358938 94.008159
CG 18.564246 84.324371 70.417818
CG 11.950708 99.222422 122.443203
CG 123.000916 86.718697 108.401651
CG 32.480833 81.343960 113.324822
CG 12.912065 104.022084 89.850094
CG 20.570985 100.293237 80.074528
CG 4.583217 97.992169 98.697285
CG 13.796576 77.544629 87.203666
CG 24.077732 101.863910 86.454096
CG 41.179320 86.138177 56.808502
CG 47.171299 87.162814 66.141762
CG 34.606687 108.959288 80.776104
CG 42.219823 116.371202 83.834973
CG 33.092733 13.278578 87.590761
CG 51.238852 121.372804 74.841056
CG 65.813717 4.651745 76.492790
CG 73.148182 110.287415 69.271167
CG 81.377839 124.114523 89.556875
CG 79.485005 113.045296 106.552566
CG 100.889303 20.014005 95.570359
CG 84.096039 114.595639 87.258451
CG 86.186724 17.804269 117.659804
CG 99.730646 13.074258 122.326445
CG 84.015931 31.235177 11.559633
CG 96.402675 13.051015 124.735939
CG 113.820062 42.042720 109.871428
CG 117.219222 15.172560 93.217541
CG 97.923913 16.048026 120.043366
CG 115.892848 23.110504 95.523662
CG 102.068189 120.421029 97.456954
CG 107.375446 0.775900 89.550631
CG 108.151131 15.831312 105.044735
CG 104.571740 28.487373 97.995189
CG 103.968064 15.482603 100.347901
CG 111.322331 54.623544 2.740597
CG 88.380204 37.432680 95.730773
CG 98.921753 39.983409 114.765404
CG 102.254720 51.513069 105.816533
CG 100.213852 52.443289 23.811148
CG 104.063652 32.893561 119.886206
CG 8.284919 55.320057 121.335775
50
frame
CG 38.432166 99.261750 77.756465
CG 51.783824 66.375082 81.882231
CG 39.491375 56.613367 71.171421
CG 52.903487 64.900098 68.838895
CG 54.270089 80.372865 69.101701
CG 17.855020 66.910136 85.314438
CG 11.744378 86.905635 96.989362
CG 18.264435 94.617575 75.237349
CG 13.731008 98.425738 98.946413
CG 8.330445 100.763774 122.344221
CG 16.316212 79.002758 92.142700
CG 27.858286 103.030253 105.993563
CG 11.805112 98.226076 86.847845
CG 9.129591 80.115268 93.615276
CG 12.619527 85.143832 92.356479
CG 21.398291 82.385372 64.974613
CG 5.838579 99.102063 89.110065
CG 14.240311 85.829089 80.251389
CG 12.300560 107.114397 105.820918
CG 10.483062 4.041026 102.909152
CG 47.546140 113.907318 66.629589
CG 35.428803 110.420687 83.781905
CG 49.201314 110.498270 83.497078
CG 57.496471 0.631189 80.339070
CG 54.688706 5.877579 96.153272
CG 78.500063 14.483251 104.406167
CG 93.044217 4.798504 102.386851
CG 99.481935 114.881884 101.724740
CG 94.838292 106.679115 119.413403
CG 101.187792 124.601772 4.030454
CG 86.808466 119.772825 106.916133
CG 86.704591 5.316765 96.568015
CG 105.219526 16.485235 99.380162
CG 103.860366 15.291029 100.927857
CG 107.244144 0.698393 122.905335
CG 107.487501 21.850338 5.016004
CG 116.534885 18.860170 104.979192
CG 105.856427 9.771898 109.980774
CG 102.756714 26.243274 109.586764
CG 110.550574 16.500265 105.085254
CG 106.994885 3.062687 84.954036
CG 108.287327 6.998240 103.184421
CG 103.047469 31.734813 100.056968
CG 89.200931 25.299286 93.278073
CG 89.343331 35.064093 3.694047
CG 88.502034 50.040017 124.903364
CG 86.861503 33.109604 118.904773
CG 94.549718 34.151186 84.264388
CG 104.234982 58.994911 97.670205
CG 79.467468 46.390286 96.997038
50
frame
CG 71.697147 59.654353 66.581924
CG 47.364028 77.895974 66.497830
CG 55.799109 93.349165 83.197939
CG 31.526178 73.942965 84.527795
CG 28.236064 88.678177 67.214186
CG 56.877975 96.691526 66.131429
CG 43.969049 100.385137 72.153976
CG 28.924058 95.522062 123.400124
CG 29.526173 94.301781 95.607057
CG 25.936964 99.625641 94.844683
CG 16.443800 109.954835 81.739345
CG 13.477227 84.331882 86.019005
CG 2.105877 84.478541 83.077613
CG 30.331291 87.804473 81.835655
CG 4.698933 87.324300 86.042480
CG 10.237700 84.646885 97.001899
CG 20.544963 104.279931 90.975616
CG 7.096359 118.121038 95.482009
CG 8.572444 123.747673 92.374195
CG 18.284066 102.615273 89.273740
CG 9.701048 115.056193 121.417214
CG 38.440416 6.732663 91.501270
CG 63.591046 114.014302 82.304374
CG 61.503125 122.993160 116.058350
CG 82.961810 112.800823 106.300872
CG 76.940427 123.701922 115.745792
CG 71.227843 115.734278 123.494213
CG 91.785570 22.010262 1.021323
CG 83.622469 115.093053 112.995576
CG 96.188570 124.281371 105.353701
CG 117.419406 112.953724 103.374861
CG 109.100469 121.599831 110.433444
CG 105.242223 93.114828 92.134498
CG 103.701803 5.740272 106.146253
CG 100.119121 2.469845 93.856855
CG 97.514577 3.246979 109.157786
CG 106.800220 10.166865 119.234668
CG 103.943073 19.762753 4.928940
CG 122.826391 19.473759 102.156781
CG 102.581410 22.151820 113.946285
CG 99.752925 38.870846 116.928196
CG 93.252106 22.754163 97.683698
CG 90.284482 16.101209 112.487363
CG 89.183786 6.015801 110.445853
CG 101.539587 27.430635 104.333174
CG 86.991673 14.603143 75.627298
CG 89.032000 43.115744 102.468628
CG 72.314309 48.506208 88.620833
CG 56.235940 38.575883 87.135736
CG 68.275108 40.127089 66.947492
50
frame
CG 55.913271 72.141450 72.051089
CG 62.005053 75.256984 71.940162
CG 50.633716 82.095547 60.318667
CG 56.595233 119.615281 62.548958
CG 51.381002 103.996951 95.945722
CG 34.199403 107.099007 109.485791
CG 49.979322 93.402836 87.552248
CG 61.848803 102.340759 59.059134
CG 45.730054 106.800574 72.950247
CG 33.855268 85.442993 68.539011
CG 23.167910 89.003648 96.303603
CG 15.942472 93.506278 68.004882
CG 28.931877 94.279798 85.406802
CG 120.929019 95.860876 87.733139
CG 23.072905 102.839193 86.096492
CG 11.513534 4.103013 106.372998
CG 5.437793 105.583800 94.419803
CG 17.915831 107.732207 105.895974
CG 23.426560 102.624870 97.457791
CG 31.387075 0.176140 97.948731
CG 34.766986 124.684691 94.486310
CG 44.253613 106.038321 1.996086
CG 35.246925 5.400933 27.147368
CG 65.045847 115.405787 115.557806
CG 69.793379 115.847660 121.923691
CG 73.869992 111.563479 2.775237
CG 81.687000 120.424865 118.517248
CG 65.436908 106.164257 115.054368
CG 100.126467 19.103859 109.234502
CG 98.378619 121.652919 102.857956
CG 95.556995 111.922919 107.083420
CG 115.598066 103.377026 103.821882
CG 108.507895 0.008837 114.662249
CG 104.564317 91.687127 105.309095
CG 103.481962 114.259968 102.628928
CG 107.404943 122.781405 93.821618
CG 96.021042 4.875525 101.773441
CG 106.417568 15.214322 97.955747
CG 88.025376 18.719690 11.332366
CG 96.637336 30.655748 118.862753
CG 98.919797 21.647999 0.331555
CG 88.925851 31.682145 5.837657
CG 94.434023 22.951199 108.447467
CG 98.303672 30.639958 92.756969
CG 78.121141 9.187868 69.925054
CG 80.657216 20.609726 93.160812
CG 65.297097 21.159926 52.684662
CG 61.207837 21.175589 74.825617
CG 58.060024 24.356781 62.500229
CG 50.108339 39.448302 84.916492
50
frame
CG 42.956180 105.183202 66.491555
CG 57.935500 107.328817 69.461732
CG 56.746116 96.122720 86.098625
CG 63.525302 88.891364 99.460741
CG 70.323115 101.316269 74.813167
CG 66.450724 109.356562 54.799556
CG 50.376075 116.298313 88.619802
CG 35.091829 97.219153 67.837614
CG 44.999971 83.343160 72.752506
CG 50.476515 103.692274 57.569081
CG 52.790308 87.490715 52.926396
CG 32.974524 100.935852 89.904678
CG 23.294304 110.862866 88.604375
CG 21.490925 3.083712 93.621833
CG 12.674552 123.042028 102.812268
CG 14.005782 102.331386 81.785759
CG 26.967045 117.340081 105.006885
CG 33.046208 121.464551 96.628888
CG 36.586108 117.143631 109.571630
CG 38.949820 109.100176 13.121749
CG 57.719557 109.795053 6.782535
CG 47.975586 121.722545 0.247858
CG 54.479676 109.933941 118.708815
CG 45.847958 108.620422 23.499338
CG 35.710061 2.153310 29.836332
CG 59.013463 112.627199 116.353633
CG 84.967588 1.608415 110.140674
CG 97.847296 107.344461 102.814477
CG 81.643356 94.218385 111.925701
CG 87.211406 102.937362 118.729548
CG 91.628481 20.702645 111.635937
CG 73.589886 19.079330 102.941689
CG 87.832698 54.840542 21.429092
CG 113.766788 95.064241 51.687729
CG 120.849022 114.682859 6.167035
CG 114.951642 17.982347 105.435197
CG 98.814568 7.169210 107.994441
CG 86.933965 3.336745 104.125308
CG 82.826148 13.517791 104.007984
CG 89.132424 13.205801 124.402631
CG 82.263743 13.175098 118.707854
CG 102.327769 24.005577 107.284497
CG 87.326532 28.166183 91.855976
CG 71.914875 32.206059 96.485627
CG 66.592125 29.839642 82.305555
CG 62.978482 30.194056 65.518303
CG 54.000156 122.243203 64.247512
CG 57.797963 8.709706 64.547301
CG 60.675770 23.347836 68.616796
CG 53.442447 2.574238 62.895613
50
frame
CG 62.843040 5.858954 85.892982
CG 41.179156 117.828976 92.823672
CG 66.067724 0.462981 81.371730
CG 62.786044 101.406587 59.631946
CG 53.273732 103.139370 71.005313
CG 64.463533 82.398459 73.366626
CG 63.330051 87.242872 39.202962
CG 60.952153 106.364244 72.698551
CG 52.164853 109.399759 60.437321
CG 38.892882 101.203703 90.997054
CG 38.419452 122.043795 77.574226
CG 57.331801 2.359283 72.473238
CG 37.441700 120.631417 74.055457
CG 52.566538 105.232493 86.176515
CG 31.377341 119.496704 93.038670
CG 45.883234 2.233614 103.323191
CG 43.227115 2.855369 104.688225
CG 38.140680 108.332021 122.469593
CG 55.270978 123.124383 14.999935
CG 57.408822 115.486297 115.916843
CG 43.594876 107.466582 17.173021
CG 48.533412 108.175364 24.782778
CG 54.281277 106.809263 13.594535
CG 44.938575 0.985955 122.710445
CG 76.580332 105.523469 97.395367
CG 66.305904 118.203327 7.961860
CG 39.912165 88.710184 15.306983
CG 70.196934 121.526201 3.550832
CG 77.669663 123.978477 112.539534
CG 73.317292 18.181096 104.554736
CG 72.601845 110.952614 117.052453
CG 93.513236 117.487028 10.175016
CG 92.391588 33.353990 63.949626
CG 80.692913 56.976025 100.049613
CG 90.299135 110.098615 20.910227
CG 88.151620 33.056254 124.462102
CG 107.922772 31.330895 110.377056
CG 96.418345 19.383361 4.599286
CG 101.798790 0.928916 95.115487
CG 83.549659 123.229258 83.446076
CG 82.461442 22.221782 74.844729
CG 60.123683 10.451587 80.833405
CG 58.764102 21.505516 97.941891
CG 63.621869 14.454875 75.220608
CG 65.093562 23.805963 88.477950
CG 48.714338 8.489296 71.121555
CG 65.277064 41.917127 97.072196
CG 55.474069 11.342986 58.910992
CG 49.339059 99.246271 62.957547
CG 69.161986 119.657478 48.987873
50
frame
CG 51.358560 118.554386 85.972001
CG 68.594224 120.445991 72.780096
CG 52.976011 108.651943 76.149202
CG 54.797348 108.489307 84.443015
CG 65.925242 101.257252 63.591264
CG 58.274735 108.784188 59.347073
CG 54.044062 106.110706 79.895491
CG 50.879200 93.612211 67.947772
CG 51.405968 102.580043 71.630151
CG 57.491831 119.303135 62.128164
CG 50.593988 110.798312 72.980032
CG 37.187853 106.359728 85.647535
CG 45.655099 117.537375 87.686535
CG 40.731985 5.271182 86.900267
CG 49.306917 120.730418 92.109623
CG 41.212032 110.942139 102.130886
CG 44.342530 115.594121 116.477892
CG 52.807486 1.709558 113.290177
CG 42.099969 112.840256 116.256138
CG 42.409322 111.000286 17.782098
CG 56.029639 116.249408 6.977459
CG 52.943575 116.484524 119.880493
CG 55.589866 113.452622 122.698886
CG 63.319568 103.313566 10.680926
CG 43.612915 110.055506 22.315486
CG 56.388932 111.458560 119.928938
CG 82.162756 3.744078 107.723386
CG 64.924409 118.091940 117.706614
CG 60.491885 111.158653 4.291962
CG 79.061963 111.667905 13.136986
CG 86.649968 23.287272 27.151540
CG 75.085071 42.567614 48.714476
CG 80.693409 49.013452 61.753748
CG 94.222119 78.643748 71.277423
CG 94.850456 90.977777 76.188585
CG 95.235356 92.982909 111.285524
CG 88.130693 116.670985 121.810137
CG 91.787811 12.075230 95.601835
CG 86.798935 25.301992 100.890560
CG 84.228157 20.656437 102.125178
CG 75.416022 5.012419 97.437457
CG 78.173503 13.915254 84.604269
CG 71.657083 15.024801 73.758400
CG 58.278857 17.836907 86.575067
CG 57.509313 20.707616 83.701577
CG 64.973284 21.625743 80.112893
CG 53.456440 116.282209 61.327040
CG 60.460251 2.489992 71.803499
CG 67.905614 21.504555 66.284594
CG 51.590125 118.724826 65.329480
50
frame
CG 62.209986 98.680773 61.881378
CG 57.618045 103.543013 76.093837
CG 57.098263 100.785387 70.538103
CG 62.779820 121.406891 69.006998
CG 50.112530 117.280594 86.601768
CG 44.868927 118.666300 85.269384
CG 52.051646 116.684628 85.565838
CG 54.173879 123.448328 61.507873
CG 53.801515 109.212709 82.983851
CG 49.034983 96.059160 69.994029
CG 55.130060 101.120608 80.186292
CG 48.058936 119.940636 77.380501
CG 54.133943 111.915667 91.356932
CG 36.348345 109.463615 102.304488
CG 51.428109 114.651647 109.209058
CG 50.545532 1.793172 100.836315
CG 49.138010 109.807154 102.212528
CG 42.633114 109.023211 119.307941
CG 47.136763 113.276332 113.508885
CG 50.924954 0.371222 107.826427
CG 50.491311 117.665171 101.676340
CG 57.246088 108.967630 2.531249
CG 49.812352 115.891220 12.005876
CG 58.092558 109.543473 121.409150
CG 66.286150 4.464023 0.229439
CG 64.227096 111.520269 0.528964
CG 58.515977 123.977529 12.467841
CG 69.643014 111.403355 9.117946
CG 88.636930 24.339595 27.446363
CG 67.774777 28.466199 62.402370
CG 67.623679 48.997449 75.594565
CG 81.682202 71.859861 72.260409
CG 88.294884 84.367309 44.432156
CG 86.945643 73.976708 52.484093
CG 81.517511 54.431705 40.232087
CG 91.406852 60.670275 37.947333
CG 77.326941 79.430321 58.440691
CG 78.326251 93.052560 88.661448
CG 65.981364 117.529648 115.175317
CG 80.988841 21.096895 100.572556
CG 79.500456 23.341601 100.392464
CG 80.843167 23.178684 104.936719
CG 74.568247 8.052981 89.617836
CG 79.339855 15.167492 81.688526
CG 64.350426 113.469627 54.579764
CG 65.487859 2.520567 77.381958
CG 64.119733 6.532226 63.116917
CG 61.185900 6.452867 79.337012
CG 53.258116 6.486093 70.453882
CG 61.020798 32.566658 87.526128
50
frame
CG 63.319239 90.316599 63.463936
CG 53.958390 93.833940 56.607958
CG 62.112889 117.345409 73.440669
CG 44.112388 103.539940 80.041460
CG 45.910512 122.947870 82.001252
CG 59.514843 1.935173 82.481121
CG 48.417292 124.292039 72.998826
CG 46.275890 116.811774 106.282588
CG 51.139697 119.113108 76.510668
CG 50.168962 122.333252 95.171576
CG 48.055321 115.745541 90.646649
CG 59.803839 94.617084 95.303201
CG 48.068403 103.645102 96.287226
CG 71.340908 109.725649 94.493616
CG 44.040262 106.966713 98.484196
CG 44.671795 99.710580 118.174950
CG 49.815466 120.565259 109.106507
CG 51.674745 118.986964 89.381561
CG 57.286602 119.865717 95.622840
CG 55.504599 103.507716 97.179903
CG 46.354261 112.085370 0.249257
CG 50.345667 124.440271 106.604718
CG 65.971133 122.618932 100.831967
CG 55.281263 8.401409 123.423472
CG 66.197415 111.399707 119.568649
CG 71.099723 7.178868 21.833876
CG 70.198031 6.275299 42.992866
CG 72.365546 46.301741 76.142042
CG 57.505176 47.739698 83.804539
CG 79.107027 82.454839 60.148017
CG 87.397860 77.132461 46.867555
CG 79.530429 56.703034 50.148860
CG 70.490529 50.827784 64.651333
CG 72.193194 50.910936 32.394995
CG 76.721539 77.370802 38.145585
CG 58.864532 79.044830 34.349174
CG 71.487420 59.784397 32.376207
CG 70.397212 71.401089 47.677219
CG 82.414857 76.912243 45.552114
CG 66.422300 85.530188 91.364446
CG 72.226357 122.653681 102.610350
CG 73.714622 7.526910 90.193629
CG 78.839004 10.003300 92.331054
CG 79.656996 117.665218 80.316677
CG 87.954105 10.475563 91.528684
CG 71.197124 117.500509 62.282793
CG 68.902548 12.825218 86.581414
CG 62.876373 27.240550 75.835187
CG 61.075518 21.090082 95.075670
CG 61.742538 14.250679 78.656777
50
frame
CG 48.946345 111.049409 68.395400
CG 57.878476 103.582606 74.002479
CG 43.419403 97.893232 69.852762
CG 56.063206 112.560785 70.847244
CG 62.106965 111.622770 64.370331
CG 40.997385 106.308637 86.713219
CG 49.588467 121.660051 94.852561
CG 53.755144 1.033826 89.802957
CG 43.980873 3.517528 105.208535
CG 54.383160 118.874571 112.794434
CG 53.612428 115.890928 102.707109
CG 56.492041 118.932255 108.762611
CG 56.838840 106.826569 100.550714
CG 47.979703 91.616588 107.308094
CG 61.344362 104.166674 99.656955
CG 66.259174 110.316593 78.529144
CG 53.538609 105.616778 90.417684
CG 58.956803 104.746462 104.297722
CG 48.350508 110.225388 109.018690
CG 50.960448 124.492934 104.475161
CG 71.770506 124.640101 83.417849
CG 59.765078 121.746193 97.590186
CG 55.180430 120.080559 115.306377
CG 71.848337 6.175218 0.117630
CG 63.638880 22.462265 35.645689
CG 62.246858 51.057227 64.247052
CG 71.690063 60.980576 68.656791
CG 71.954400 80.434873 64.579528
CG 78.727883 72.804288 55.746385
CG 76.668998 56.918064 64.175845
CG 62.174079 50.459604 65.719058
CG 67.509442 64.168307 31.389868
CG 73.098228 64.693419 26.183555
CG 57.178399 69.760666 47.422630
CG 52.367201 54.289249 48.827457
CG 64.100416 58.066736 46.716430
CG 68.679104 82.164278 37.877551
CG 59.745534 70.922725 26.740895
CG 65.781419 67.077140 34.960375
CG 73.182276 64.800239 25.246629
CG 74.874527 51.296382 34.231492
CG 70.842306 62.282675 69.187284
CG 79.754551 108.682139 88.833613
CG 70.913323 1.023649 88.763686
CG 73.851234 18.455011 103.596421
CG 83.649052 32.198966 104.872987
CG 80.150619 17.339646 99.660524
CG 75.197939 0.391393 83.351312
CG 77.729590 20.939395 79.700671
CG 63.999324 14.305468 87.890249
50
frame
CG 41.930096 112.411963 81.441857
CG 42.686926 1.702760 79.226555
CG 55.620268 110.421531 67.079680
CG 53.375095 104.467974 73.956988
CG 41.224993 96.574810 91.624481
CG 57.698270 115.753423 75.609353
CG 54.972761 109.216299 95.456556
CG 47.041139 112.492580 95.494363
CG 59.439947 113.469184 118.401032
CG 52.978558 121.764445 97.830805
CG 56.286358 119.587545 121.850833
CG 43.649353 116.019516 113.658698
CG 62.657830 115.284043 112.102490
CG 55.656617 124.830826 91.046950
CG 64.720732 103.477041 90.545467
CG 57.312119 98.780818 100.883640
CG 67.686462 95.687209 96.009253
CG 59.351218 113.749852 93.346884
CG 70.482877 113.434915 81.585300
CG 68.296144 119.502199 98.522057
CG 51.469612 121.282019 108.552193
CG 73.923597 5.522647 1.797132
CG 72.303232 31.283021 21.446230
CG 61.070993 38.840529 44.055847
CG 64.822475 77.260984 58.923342
CG 73.259897 69.630839 37.768498
CG 68.586936 91.898899 46.100631
CG 68.872893 50.409109 44.166582
CG 74.994846 65.319917 48.729038
CG 57.159758 58.490208 37.412872
CG 65.845919 66.280815 30.305739
CG 54.306713 63.584631 67.102667
CG 42.916644 62.754969 52.490192
CG 62.214375 65.243557 42.441141
CG 65.205568 71.076008 29.326095
CG 59.533625 66.274274 37.414168
CG 45.216225 52.473820 46.591591
CG 69.978657 55.718774 33.163841
CG 58.015944 56.305163 25.194684
CG 66.428136 50.939986 12.417496
CG 69.332475 57.889625 24.439950
CG 76.020685 68.955755 24.643207
CG 64.469399 54.245339 40.632033
CG 78.598945 102.246520 94.140049
CG 70.927605 108.196344 86.284989
CG 72.949676 4.243654 111.340331
CG 80.858591 20.128655 92.387094
CG 87.412919 28.286318 118.594314
CG 79.431886 1.636645 93.852611
CG 94.526347 11.503080 85.832028
50
frame
CG 48.875093 2.289217 78.705982
CG 40.564691 104.872815 78.946969
CG 38.939649 121.751101 104.075784
CG 39.799245 120.033993 91.904116
CG 55.339661 120.091394 87.145579
CG 54.660658 101.632392 100.301449
CG 50.988961 97.671225 96.041362
CG 62.367345 104.735016 104.578204
CG 57.348655 103.744427 89.059932
CG 48.174023 106.340805 115.480390
CG 55.550324 115.163048 106.367334
CG 67.184899 121.830164 92.732231
CG 50.049060 122.168107 102.023642
CG 66.207501 113.692577 112.160405
CG 56.048296 118.059284 109.635685
CG 60.811775 120.478507 102.939714
CG 70.174552 122.068268 89.388274
CG 73.785912 106.765431 88.925237
CG 69.675216 114.312466 107.176377
CG 76.623503 118.688798 112.617088
CG 80.757388 21.937206 28.216296
CG 61.503788 46.162243 43.134585
CG 64.937003 66.580240 48.722775
CG 74.536804 85.643730 40.862502
CG 77.801936 71.777199 18.434656
CG 66.256664 60.800265 32.801629
CG 67.059158 49.194624 26.576406
CG 62.249336 73.019944 18.814587
CG 44.602532 66.361052 20.822747
CG 57.097436 71.377117 41.166199
CG 49.887701 71.724469 48.280929
CG 53.493315 62.773595 31.303265
CG 64.206577 70.163224 45.717753
CG 49.924408 60.456304 47.126174
CG 44.327617 61.317021 54.212276
CG 56.809232 59.867905 29.447108
CG 69.355449 47.504017 12.058651
CG 51.404946 45.946359 29.234101
CG 62.395928 44.906426 29.170070
CG 62.108261 60.113436 45.442484
CG 56.262828 70.366116 33.137503
CG 64.049576 78.982801 38.892677
CG 71.459760 81.747194 37.564827
CG 69.048640 54.270145 23.063272
CG 78.069667 67.980274 52.032153
CG 78.633264 84.407715 74.084935
CG 74.615995 96.712679 102.217776
CG 85.662533 0.683724 91.135348
CG 102.849114 20.227616 112.756808
CG 99.186461 12.157358 121.583582
50
frame
CG 36.640283 110.027080 99.321281
CG 49.039891 5.617954 101.950335
CG 44.951976 123.419549 89.008365
CG 47.665573 111.883870 109.343569
CG 46.156511 115.294874 110.349869
CG 42.862109 112.750134 111.999764
CG 60.178702 116.284174 95.009206
CG 52.108056 95.993830 103.176174
CG 48.965441 102.194580 99.507279
CG 75.421302 104.372531 87.266905
CG 56.768649 104.814131 74.537827
CG 59.291516 105.101075 113.975952
CG 63.827182 114.334347 102.421579
CG 58.999234 120.296306 103.214663
CG 65.085041 11.073999 102.460247
CG 79.074878 2.344943 98.909249
CG 60.135847 5.496881 122.362471
CG 75.328217 12.400650 8.349681
CG 79.633759 27.372089 30.998378
CG 68.241372 44.887631 46.760037
CG 78.030292 57.588775 34.495188
CG 83.320485 70.071078 26.434051
CG 82.207873 60.803480 21.795763
CG 70.122146 55.849727 20.891192
CG 62.146805 44.190443 26.095728
CG 64.875404 78.777054 14.492534
CG 54.260455 60.609839 1.943655
CG 48.802490 70.725674 27.872429
CG 53.584594 63.833960 28.085608
CG 50.330944 73.612436 14.789708
CG 47.551399 65.836832 29.067440
CG 54.060448 75.069435 30.348969
CG 47.395849 62.034303 35.669848
CG 52.268978 62.215387 26.751867
CG 65.380852 45.130610 21.504702
CG 47.639581 38.014781 39.940560
CG 52.354636 59.777523 45.378309
CG 57.903090 62.020872 32.393702
CG 61.096144 69.142726 34.559510
CG 51.801120 71.097799 42.150238
CG 66.306340 65.996944 49.167002
CG 55.421152 49.181985 43.944715
CG 67.322308 74.395564 43.082949
CG 67.363022 73.772711 33.944836
CG 73.536102 69.854912 43.254760
CG 83.169734 55.082692 16.745751
CG 100.571943 70.155579 56.622863
CG 91.984387 64.906792 86.155237
CG 89.939897 101.207599 117.079405
CG 92.598323 4.632897 117.638477
50
frame
CG 47.937863 3.378099 116.497766
CG 39.145393 113.223177 121.371303
CG 48.770223 104.609034 117.230682
CG 51.037699 124.964096 109.485788
CG 46.157468 112.625691 106.583653
CG 52.463750 115.499148 101.135184
CG 39.534729 109.984410 120.643153
CG 53.595156 122.149902 88.075178
CG 69.303016 112.115813 89.968933
CG 48.907907 100.029431 91.997382
CG 67.786154 100.372900 113.718835
CG 62.490688 106.764678 80.391094
CG 72.474482 113.637515 87.298347
CG 71.177256 0.774683 96.798506
CG 74.399958 118.988594 114.405367
CG 62.383819 19.601842 19.370338
CG 84.981062 39.620334 38.556576
CG 68.080719 69.538515 60.188811
CG 68.112658 75.342909 46.374678
CG 86.006899 84.425086 39.584992
CG 75.169305 66.449939 24.864914
CG 79.255449 45.851192 21.996741
CG 72.702546 44.009279 10.590644
CG 71.583625 48.495432 2.662647
CG 60.918970 69.989235 6.301688
CG 50.150591 44.957215 12.708171
CG 51.097833 78.327295 35.792892
CG 54.754713 62.216307 6.239842
CG 56.183384 72.329217 9.725346
CG 45.730067 61.938777 23.122956
CG 55.170783 64.886788 5.882338
CG 45.352387 59.463894 17.206546
CG 49.523451 50.292506 1.787706
CG 56.309031 47.829516 22.475548
CG 47.053096 62.749273 29.769599
CG 62.062695 72.110194 28.625050
CG 50.776165 60.892027 42.346277
CG 54.347670 68.540667 55.743259
CG 48.162663 74.514522 61.822488
CG 62.578191 55.812640 33.842271
CG 59.676396 64.534246 40.315872
CG 67.618213 77.968267 41.222238
CG 61.055108 42.118662 44.869107
CG 76.257979 60.356533 55.602223
CG 85.340309 66.305479 33.957600
CG 85.338839 70.815158 71.357555
CG 81.590912 65.512195 45.459414
CG 92.723916 72.406847 53.616419
CG 87.198076 43.473803 48.739021
CG 83.293074 23.758074 74.896892
50
frame
CG 49.819988 108.423249 13.517241
CG 54.131576 117.099778 122.403328
CG 46.398410 2.539220 8.627666
CG 41.504785 105.176879 117.103744
CG 49.922162 112.769058 117.700853
CG 53.916066 122.234264 100.164742
CG 60.370423 116.236881 83.933795
CG 53.417669 112.791645 108.308048
CG 46.493943 111.670441 117.683691
CG 56.769874 0.360299 99.816383
CG 68.953079 122.852613 85.671610
CG 72.613638 120.302558 93.349369
CG 68.578625 113.795105 120.312734
CG 75.160248 0.031976 4.561532
CG 79.266985 31.145069 29.025266
CG 74.902912 59.621394 50.285428
CG 69.667556 71.665827 41.617026
CG 79.357439 77.724846 35.086050
CG 83.007318 80.057452 36.071104
CG 69.853691 60.326088 24.804732
CG 72.216322 62.237677 28.016705
CG 64.530923 67.563895 14.372837
CG 58.060490 69.994530 12.716177
CG 56.262956 53.225753 18.635536
CG 62.688448 56.036759 13.151668
CG 63.269014 57.987436 7.513632
CG 62.003753 54.345060 123.603113
CG 51.552711 56.155032 17.000105
CG 46.089908 62.852428 12.577710
CG 58.670953 55.897900 124.097452
CG 49.697366 52.257079 0.461897
CG 53.636038 38.506710 123.649706
CG 56.526744 65.419731 15.582995
CG 47.412391 71.194363 12.638228
CG 46.272843 68.402077 25.507581
CG 49.880109 73.820872 39.650271
CG 55.204592 79.372700 38.847944
CG 56.834744 66.089950 35.501732
CG 60.340005 51.116280 35.965898
CG 60.829987 76.792360 65.652345
CG 53.256005 57.111566 51.209980
CG 74.492645 53.042586 47.176965
CG 84.885187 75.351821 42.538797
CG 80.928274 61.654221 58.280160
CG 72.055078 47.225243 73.054230
CG 80.770779 66.612235 64.306204
CG 75.385855 43.949376 51.227801
CG 71.068477 19.781991 41.947091
CG 78.851364 121.445541 14.120842
CG 85.941988 114.283225 104.169883
50
frame
CG 52.982617 113.530217 8.591039
CG 50.510717 107.432436 18.849292
CG 51.898891 107.412150 123.298669
CG 59.877068 122.748777 124.278630
CG 57.050781 2.158055 107.401701
CG 46.124522 101.878532 124.250455
CG 54.791820 118.230415 121.099547
CG 57.604726 120.619476 107.447589
CG 62.664639 7.746062 81.097744
CG 76.541112 2.643798 112.236877
CG 48.912000 5.973241 124.958423
CG 66.445323 18.381022 34.370810
CG 76.286460 46.491488 25.133409
CG 73.977491 57.841211 50.116216
CG 65.087362 67.976624 43.798833
CG 89.838265 54.613546 13.183726
CG 78.219003 64.113958 24.292384
CG 76.957019 49.741425 14.025384
CG 68.864609 50.212269 15.796109
CG 62.952232 66.669047 18.403640
CG 60.741509 77.817237 17.563731
CG 51.314034 73.885738 26.440414
CG 61.095170 68.182395 30.317644
CG 58.446728 82.242460 16.794106
CG 56.252180 51.708069 10.496715
CG 59.639611 66.527646 16.128520
CG 56.453665 40.181078 122.886701
CG 64.936907 53.054219 119.550308
CG 62.701435 29.110083 115.489446
CG 52.225357 41.598311 122.062812
CG 53.189166 54.294541 16.482898
CG 58.506003 80.555752 5.834628
CG 45.330141 62.802128 16.684688
CG 50.278754 67.707432 21.765881
CG 63.400410 78.732165 21.528346
CG 43.948853 63.956976 17.874840
CG 54.419195 60.010954 23.118351
CG 56.619889 74.166721 41.434649
CG 63.563455 74.872839 38.973446
CG 64.824964 52.071209 35.080894
CG 92.100516 67.414090 49.785173
CG 67.940753 62.411821 74.700425
CG 67.057081 57.304834 83.640815
CG 73.479876 56.436074 54.986543
CG 78.447662 63.368113 54.788996
CG 62.910154 114.776388 22.987590
CG 72.516167 110.781329 37.245504
CG 74.959343 103.528875 114.084347
CG 72.881922 121.462040 111.953524
CG 65.954777 124.175772 114.907418
50
frame
CG 51.656448 108.402041 9.741632
CG 55.792842 117.211335 122.766637
CG 55.504778 120.184138 3.233615
CG 48.549972 106.915117 1.405512
CG 52.046798 107.998575 3.778904
CG 61.280426 3.677625 110.535590
CG 58.488584 123.312170 99.913083
CG 60.192892 120.724651 113.191648
CG 56.997736 121.753274 8.527875
CG 54.687579 10.759554 1.333752
CG 76.678407 25.971860 1.706196
CG 70.148336 33.498029 7.488991
CG 61.106970 32.840685 27.135725
CG 73.441868 39.191142 18.149425
CG 83.011051 48.034942 21.357009
CG 68.301823 58.915525 37.437184
CG 72.014251 54.327667 24.034224
CG 72.630611 64.199333 21.296402
CG 69.920069 70.422748 20.016704
CG 65.490988 61.948453 19.629028
CG 62.254845 59.459695 23.448141
CG 64.506681 70.489679 17.492516
CG 55.989348 70.593208 12.887714
CG 56.746763 58.872784 20.260875
CG 59.634614 66.498793 15.600700
CG 59.414653 54.076539 2.267579
CG 61.478783 53.983328 5.110027
CG 54.832102 44.776281 5.322763
CG 54.560345 57.670235 7.360904
CG 61.515058 60.156814 4.552758
CG 55.492613 53.165981 123.760598
CG 49.447916 47.791896 13.529829
CG 59.188566 69.421072 15.021473
CG 53.454231 70.568311 13.711470
CG 45.025755 60.309984 20.066435
CG 59.997228 72.128987 30.619431
CG 58.464438 76.045012 32.371839
CG 59.513408 59.580876 25.304280
CG 67.840976 59.618704 38.555920
CG 69.221767 73.588262 57.943855
CG 56.992459 61.109620 59.552093
CG 75.268866 58.243532 46.061875
CG 80.286110 67.999087 44.146866
CG 68.654861 85.772014 55.389821
CG 66.280075 91.536400 46.708888
CG 78.012087 73.555065 35.126551
CG 72.603874 93.399507 8.970662
CG 66.633150 118.679276 17.849856
CG 68.516658 113.689035 9.685551
CG 73.951678 113.482196 116.859422
50
frame
CG 58.002017 122.891223 114.816501
CG 50.644169 110.009310 122.201417
CG 50.983074 108.092779 6.604399
CG 58.281517 123.396885 115.048943
CG 58.222704 121.004860 117.107998
CG 59.304683 119.506531 119.570621
CG 57.443246 117.738676 16.437711
CG 58.503769 15.776586 8.851635
CG 69.127934 20.219510 16.696664
CG 61.054776 26.563501 14.549168
CG 63.145697 24.471850 28.420745
CG 63.988650 29.500816 118.018327
CG 81.775954 28.493955 115.978918
CG 65.561357 31.246222 121.335284
CG 62.884764 23.363894 8.777066
CG 62.007226 43.434801 18.519842
CG 69.882972 56.474783 23.266236
CG 59.113099 68.596602 39.389078
CG 65.281098 63.649094 31.321929
CG 72.126299 67.699427 22.648075
CG 68.355138 63.327791 13.813039
CG 66.987886 46.860726 12.589246
CG 64.734501 52.894676 10.283401
CG 64.447993 49.042086 1.323780
CG 59.852091 62.442507 5.978001
CG 54.553334 48.043478 13.369246
CG 55.189355 76.043285 21.754062
CG 56.423200 69.477389 15.534465
CG 55.668970 73.407896 14.724971
CG 50.801385 55.704717 18.755859
CG 59.620143 68.247729 11.762738
CG 60.010124 56.008697 8.282286
CG 53.454174 47.650997 4.808762
CG 58.198280 51.349003 21.724116
CG 60.199222 67.955826 25.368312
CG 63.442120 64.260174 22.865518
CG 61.718258 58.572414 34.132209
CG 70.522364 71.964647 49.427349
CG 54.898634 65.134004 51.482107
CG 64.440545 61.478310 35.893798
CG 62.655929 67.031850 31.149419
CG 65.143065 94.751397 35.905036
CG 57.320823 95.658974 23.487804
CG 78.015646 80.684189 18.487166
CG 75.903548 92.601149 4.698290
CG 69.305210 95.313536 39.185862
CG 65.122014 92.654081 29.242519
CG 76.091527 79.044017 33.845816
CG 73.894335 88.162445 19.490854
CG 69.417516 103.651742 39.293241
50
frame
CG 47.454742 106.029513 114.992436
CG 59.566688 0.279692 111.293061
CG 62.723927 4.268075 96.983686
CG 60.372898 120.106110 0.715220
CG 60.186163 3.142261 12.029008
CG 55.467257 5.021770 25.518883
CG 66.788908 26.291436 22.785510
CG 64.819064 17.297302 31.404176
CG 57.668578 26.791504 20.203187
CG 75.210013 27.890299 13.401762
CG 65.035004 25.588967 114.145991
CG 66.263354 19.221760 18.680178
CG 53.478361 22.212683 4.324091
CG 61.410007 28.066568 0.324021
CG 60.140984 47.084395 120.682584
CG 63.949196 34.083894 119.288105
CG 50.274835 37.924969 19.587004
CG 67.086820 38.120306 10.813145
CG 66.146656 51.572728 20.088905
CG 59.523560 51.532700 27.993410
CG 69.612262 51.972855 19.218736
CG 69.019520 55.576463 7.922660
CG 73.401539 44.912370 5.860556
CG 64.295303 52.813205 10.431068
CG 60.390729 46.120582 13.874069
CG 62.264271 83.067631 18.274042
CG 53.771593 61.954694 12.337110
CG 53.044313 74.628019 26.890835
CG 57.150438 68.892094 25.878910
CG 58.186241 78.198716 16.338881
CG 51.914422 57.829539 26.128437
CG 58.894524 67.587024 22.616246
CG 63.844952 63.627949 28.641408
CG 67.001660 54.658759 15.055980
CG 73.918912 44.059601 20.921801
CG 62.450965 49.395781 40.845697
CG 65.002183 61.076455 41.398917
CG 57.401657 60.319454 33.271113
CG 67.544973 73.697089 23.332784
CG 57.169702 88.451730 26.110975
CG 65.241275 105.076505 16.881169
CG 57.800715 80.974912 3.088908
CG 67.906539 88.295066 3.815287
CG 56.840327 107.941571 6.599794
CG 61.713624 89.205515 25.597994
CG 71.227837 92.437377 123.209821
CG 80.933693 83.655659 33.202627
CG 68.569711 84.046666 43.826407
CG 68.619289 80.370942 69.356916
CG 75.022153 53.179880 57.036314
50
frame
CG 65.659416 8.567065 98.616903
CG 56.285239 116.572012 111.096363
CG 56.672365 124.374984 9.497238
CG 58.772012 13.374478 11.048515
CG 66.459668 24.992862 12.185151
CG 71.422514 30.618691 26.054713
CG 59.024446 24.922808 20.605589
CG 68.150599 26.056646 18.073589
CG 70.988449 23.223313 7.088184
CG 57.190723 12.932778 18.947176
CG 59.319494 22.612403 16.479607
CG 61.841243 30.476747 3.176549
CG 52.803198 39.236027 7.441548
CG 56.492276 31.161913 13.698265
CG 50.687766 26.077623 12.383304
CG 56.082224 32.909080 4.292433
CG 66.830710 33.045415 106.023766
CG 58.132695 24.157658 115.696884
CG 56.136929 21.703574 1.534176
CG 67.904325 26.389929 120.029977
CG 63.412752 35.153675 12.321536
CG 63.153772 50.194277 25.515988
CG 60.116624 59.503164 23.942625
CG 67.832701 72.478850 24.475048
CG 68.183579 67.913986 17.197048
CG 60.539039 54.872346 17.844484
CG 65.382092 59.481463 24.026492
CG 63.063711 70.871865 14.929825
CG 51.832527 61.617395 22.097134
CG 59.317848 70.892452 36.432964
CG 65.114849 76.442072 32.998883
CG 63.552908 67.366509 33.645594
CG 70.991749 60.466684 35.130201
CG 66.887181 63.417585 46.516104
CG 60.348249 59.212396 45.136916
CG 69.564289 55.115569 22.209299
CG 70.056671 58.260589 11.093424
CG 59.998318 71.574869 11.861496
CG 64.206911 92.519752 8.756090
CG 62.676936 88.325112 123.610707
CG 60.575890 83.061654 122.236859
CG 60.647641 106.460581 2.052615
CG 61.018396 99.322777 11.825891
CG 59.027376 82.662302 1.021717
CG 67.545668 90.580134 14.107327
CG 60.987383 85.319470 36.898193
CG 59.897827 79.318123 43.591970
CG 73.349275 68.391969 38.302237
CG 79.121682 46.346156 56.182687
CG 68.462202 66.001255 73.288542
50
frame
CG 64.424386 9.439221 8.447692
CG 67.677976 26.972825 3.972157
CG 67.363919 26.874259 10.427227
CG 68.261960 28.693744 10.006487
CG 58.751690 21.782113 19.271364
CG 64.779039 29.445887 120.616989
CG 75.324547 22.349133 3.652916
CG 61.168072 25.982818 4.874891
CG 58.384289 18.748342 22.940353
CG 57.749682 34.957870 4.381502
CG 57.880606 32.071524 25.525866
CG 44.371203 29.483813 16.480515
CG 63.539005 22.647537 22.031296
CG 51.802743 35.054215 5.216936
CG 62.204366 24.917635 122.153798
CG 52.493729 20.335623 3.333693
CG 53.662163 10.135044 1.205193
CG 57.186627 23.434205 115.646185
CG 66.317067 18.572040 97.010102
CG 56.599535 23.919162 119.752334
CG 52.149659 33.403882 2.411436
CG 61.766851 38.385638 8.789128
CG 61.749433 59.256700 25.849643
CG 58.237334 48.318512 27.752509
CG 62.802107 71.514621 34.661837
CG 70.877408 60.402132 24.605307
CG 65.512754 71.606280 23.627397
CG 65.353595 46.012804 31.162714
CG 77.621602 72.465531 32.028844
CG 67.280889 56.149308 28.803422
CG 68.912537 63.585558 35.721900
CG 71.000943 66.030625 55.006917
CG 59.203321 72.718578 49.732805
CG 94.468401 11.544023 98.948220
CG 69.183970 78.490863 22.111434
CG 63.204233 88.155369 19.025127
CG 57.540079 90.338435 11.320294
CG 78.072512 86.900114 114.739357
CG 59.851676 65.010703 111.099066
CG 65.396050 85.530927 116.001584
CG 59.743463 90.895206 0.999063
CG 65.348627 82.641033 3.905893
CG 57.501309 84.574246 3.483598
CG 69.504319 86.819200 39.103820
CG 55.756275 81.870139 27.956754
CG 33.884451 116.214448 107.956399
CG 65.829862 56.586621 34.578195
CG 61.059869 59.791285 67.981540
CG 58.065123 74.991044 42.210276
CG 76.901084 60.530201 34.697849
50
frame
CG 70.001039 48.475501 39.885764
CG 74.378762 41.960405 36.263643
CG 70.180022 37.973800 9.789552
CG 69.975567 35.090917 124.290617
CG 77.400109 31.143066 113.708700
CG 59.888631 16.071460 4.079982
CG 52.296573 25.638137 7.743766
CG 59.513400 28.561478 124.346306
CG 56.769091 40.662231 3.672422
CG 55.581371 33.774868 20.930829
CG 53.348863 25.961384 8.353215
CG 62.485320 31.436198 19.256379
CG 50.901618 25.096832 5.466509
CG 55.667586 9.624385 9.299144
CG 55.035807 16.077209 10.768784
CG 61.415237 16.516374 114.304993
CG 56.095080 21.066819 119.457871
CG 55.176950 13.185307 1.095692
CG 45.807869 28.991598 14.564964
CG 51.854681 36.266891 124.302176
CG 65.767964 38.244809 114.679759
CG 50.650488 33.569232 124.100654
CG 56.785197 28.561326 5.350968
CG 63.641494 43.696581 13.594920
CG 60.892888 39.769561 25.538593
CG 61.355569 60.731830 43.458756
CG 74.052112 59.660570 42.067000
CG 79.070414 70.579200 39.345604
CG 75.619278 52.416956 39.127061
CG 81.062925 57.771182 48.219087
CG 69.250746 55.513780 55.454360
CG 53.705187 53.470168 43.508539
CG 46.070075 65.320221 54.117594
CG 31.018999 46.145219 80.540250
CG 70.496906 33.110120 100.623435
CG 75.713467 1.712615 108.702174
CG 72.348087 96.208110 116.420960
CG 53.809670 92.194113 3.683831
CG 67.333857 99.702478 2.727452
CG 68.213644 74.911658 124.679897
CG 67.420795 68.629751 122.416004
CG 63.582063 66.245330 20.610432
CG 65.065315 71.799761 29.391140
CG 53.314361 79.535383 17.130733
CG 73.236927 75.534082 48.599762
CG 8.540422 101.664568 22.400184
CG 47.996166 84.542617 51.025836
CG 56.395259 69.162507 8.110081
CG 64.572124 66.376816 24.378370
CG 47.966361 71.195633 31.635084
50
frame
CG 80.976343 69.255095 34.819306
CG 70.781906 55.797121 26.759700
CG 78.392864 50.539624 27.180739
CG 68.984009 33.427134 24.752859
CG 57.891612 36.870595 7.909578
CG 67.869117 43.876748 1.550018
CG 60.113616 41.700305 115.710844
CG 52.073685 31.519905 18.347973
CG 52.407390 27.377802 124.246432
CG 59.051342 23.941792 1.752185
CG 56.503145 33.992803 121.928573
CG 58.745453 13.261674 124.292844
CG 53.461723 17.346826 3.437632
CG 64.879316 19.234677 3.059474
CG 50.705249 15.378062 122.654798
CG 52.573727 11.679523 17.395285
CG 52.801391 28.396210 15.272118
CG 51.812640 37.438546 5.947389
CG 56.678694 34.305251 5.829226
CG 54.194635 25.235087 8.156066
CG 42.588505 24.296687 19.434569
CG 61.208512 37.677218 4.615254
CG 60.859378 28.728500 119.570618
CG 55.718286 35.689627 12.726865
CG 68.094128 29.873493 14.683997
CG 72.826392 38.441451 22.895604
CG 69.986865 32.451761 43.140833
CG 73.457582 57.753070 57.358376
CG 67.381380 52.589956 64.918830
CG 59.786750 62.778726 57.606976
CG 54.037370 57.995765 50.257194
CG 55.603915 74.106177 49.123146
CG 50.931806 71.603285 36.995853
CG 96.245382 46.832193 55.370261
CG 83.617848 6.633109 92.342188
CG 70.355647 21.625633 93.243508
CG 74.851561 37.973103 96.045009
CG 74.855668 121.557780 114.590512
CG 72.579106 95.011041 6.418572
CG 57.526506 83.218261 28.717299
CG 68.059504 76.577501 36.604134
CG 63.254921 75.174968 15.504880
CG 78.184108 62.243540 35.491242
CG 89.385635 52.746632 46.000576
CG 86.432392 73.772260 34.332880
CG 62.498847 28.610290 114.888879
CG 51.777118 110.249597 20.721427
CG 41.502659 114.152732 34.623765
CG 33.688158 83.236582 29.939836
CG 45.528552 77.375316 4.053707
50
frame
CG 75.138868 53.196323 12.016467
CG 80.252910 64.328381 22.231580
CG 64.453986 62.036926 32.039806
CG 68.043746 71.383468 25.624560
CG 65.808899 58.771744 38.821499
CG 55.904600 49.953300 27.399530
CG 62.656556 37.313565 17.467765
CG 65.745022 42.035722 111.219178
CG 62.665038 28.857202 124.017949
CG 52.352265 20.567708 111.828548
CG 58.187513 7.549491 123.907840
CG 53.159031 22.098086 109.900132
CG 65.541500 18.531917 117.568543
CG 45.116544 20.794385 2.355931
CG 59.729735 28.093478 14.738228
CG 51.318599 43.855452 13.103767
CG 51.293583 25.289767 11.297551
CG 52.844891 24.679143 25.488967
CG 51.683655 22.895388 14.717818
CG 56.037825 35.980502 16.729385
CG 60.613404 30.899095 7.272948
CG 53.881820 18.893659 22.186044
CG 55.699438 36.041857 35.440355
CG 72.268108 22.514319 10.877999
CG 67.008177 33.531407 17.937187
CG 66.473210 20.975725 27.282112
CG 62.264920 38.540105 34.032750
CG 49.505585 15.769568 40.977490
CG 50.122401 51.022811 48.957613
CG 46.446048 61.252693 55.226803
CG 52.171598 78.942127 46.393751
CG 53.109122 76.860468 36.969498
CG 53.542217 73.149361 24.562899
CG 67.340427 41.335802 66.566282
CG 60.949369 11.264258 98.037152
CG 80.698305 10.087712 96.759721
CG 77.911877 116.980190 112.772419
CG 79.842858 18.472724 115.697941
CG 68.131812 11.251550 4.843182
CG 81.941178 0.089092 6.578407
CG 75.727605 94.148224 33.684731
CG 91.995320 71.721057 61.682950
CG 84.830502 76.514007 32.777384
CG 87.774773 74.844091 20.698466
CG 82.968924 48.403977 8.736740
CG 14.498105 64.604933 115.207813
CG 24.301707 115.175083 15.683245
CG 35.953802 109.995039 17.559752
CG 35.623472 7.838534 124.832310
CG 27.191488 2.219620 35.508836
50
frame
CG 65.203345 60.430882 20.264590
CG 64.835393 61.988363 15.301524
CG 68.802346 67.933769 15.824686
CG 64.924307 70.873261 31.697759
CG 68.605452 68.327345 27.069942
CG 69.678700 61.277172 20.572290
CG 64.567866 53.374322 32.148031
CG 59.938201 32.108354 14.421941
CG 63.908905 26.652181 1.237049
CG 66.957181 32.604878 114.047878
CG 61.084842 24.624218 107.390938
CG 53.247975 22.151946 1.452412
CG 47.557277 25.688776 4.144877
CG 56.277744 39.843955 124.572447
CG 53.062210 35.488856 4.319678
CG 53.453673 23.023267 6.763783
CG 56.307450 32.987697 19.827676
CG 55.183758 32.165452 13.370874
CG 55.773808 29.306796 24.882043
CG 54.060894 16.468770 29.797065
CG 64.290323 30.006787 34.919760
CG 66.661669 31.652657 25.657582
CG 70.651677 20.291989 22.273148
CG 57.707070 22.069054 46.876479
CG 52.771844 25.514330 49.033110
CG 46.114623 23.635007 33.712876
CG 44.260622 31.530595 24.582979
CG 44.837099 49.668429 22.038031
CG 43.383756 46.671448 14.828492
CG 48.342164 41.396759 15.243613
CG 46.933973 55.759714 27.228282
CG 41.124188 60.296630 36.436836
CG 33.783790 79.327943 50.642481
CG 63.453236 37.574000 77.544134
CG 74.912549 1.935322 109.899886
CG 66.028927 120.847824 1.203185
CG 64.466073 123.059479 0.036698
CG 76.437526 120.682220 0.125324
CG 93.398794 122.368121 9.236446
CG 102.002108 124.972233 24.654330
CG 98.085760 11.666846 1.339467
CG 94.729001 2.725766 121.489366
CG 89.855486 87.612231 16.019089
CG 86.534715 79.440146 25.032185
CG 93.296045 99.268612 26.236147
CG 70.470210 101.393093 100.446805
CG 24.590859 109.368069 4.354931
CG 11.507437 4.025650 7.078521
CG 19.138362 22.755924 34.139369
CG 25.521122 41.713904 6.802791
50
frame
CG 57.935277 77.370879 20.791224
CG 52.685917 67.835965 27.232037
CG 65.430777 64.931023 19.780475
CG 68.975201 50.606354 6.731745
CG 65.725587 58.249865 6.561482
CG 69.385269 54.616665 21.640945
CG 69.219121 54.341189 0.336566
CG 71.311341 54.890902 28.867749
CG 62.431134 51.969829 15.634819
CG 59.804091 32.514773 28.821595
CG 55.047799 50.482261 14.781133
CG 67.191824 46.829894 0.209382
CG 54.006748 44.756497 120.933252
CG 58.183758 22.634087 8.346869
CG 47.290461 27.857291 3.535547
CG 59.431141 32.776398 8.439096
CG 56.239075 32.671261 9.593635
CG 57.491701 22.507736 19.215899
CG 66.069337 32.447301 32.204063
CG 70.385063 34.597124 26.623893
CG 59.807428 14.996081 38.329783
CG 61.595632 19.668029 52.745179
CG 53.849696 21.796325 52.917190
CG 43.935139 32.606182 42.813421
CG 45.597079 20.182052 28.308627
CG 38.899592 51.343000 39.312288
CG 35.637584 36.106924 30.819559
CG 43.581195 46.812204 9.264036
CG 43.111539 35.890069 5.983274
CG 36.639208 53.794381 7.041729
CG 24.159761 37.405636 16.852525
CG 19.250727 42.042506 29.561863
CG 21.067893 36.893586 44.950098
CG 101.619795 20.012496 95.687928
CG 63.065352 121.563907 18.686982
CG 65.911345 121.485003 8.035744
CG 90.448095 6.025058 9.861293
CG 88.614708 106.430865 29.003211
CG 93.393911 119.251972 1.625228
CG 85.592129 121.543093 107.766124
CG 106.238343 114.162881 122.046758
CG 95.763429 3.824663 113.326629
CG 104.301620 38.771140 115.721945
CG 97.119986 30.024688 111.769325
CG 86.336930 118.973141 5.120643
CG 123.535306 26.236718 109.489105
CG 18.663742 39.588021 35.956854
CG 20.776461 35.406852 11.820837
CG 11.484218 17.257798 123.538273
CG 4.483872 16.568474 9.581970
50
frame
CG 58.509744 64.816851 23.141844
CG 65.879198 66.266021 13.034864
CG 60.088419 63.356640 14.380290
CG 61.208975 65.996371 22.584509
CG 68.035574 56.487732 16.256661
CG 67.995712 54.998465 9.113248
CG 65.792004 53.409522 23.094978
CG 62.400831 46.306179 12.715041
CG 64.643202 47.797796 16.296191
CG 65.700424 56.954023 7.714595
CG 63.185188 41.589473 9.042214
CG 53.231234 33.557423 16.686147
CG 57.827825 33.899462 12.486909
CG 57.110266 43.888937 1.657327
CG 61.095332 36.038885 6.500030
CG 54.032109 25.819847 11.531836
CG 58.866547 27.668284 18.657736
CG 63.574914 35.305400 19.706993
CG 58.549883 23.424736 21.732636
CG 56.954836 18.681583 37.964031
CG 62.278549 31.445495 40.588885
CG 55.452357 29.209150 33.489572
CG 52.398922 24.954539 34.433813
CG 51.474721 27.711565 42.354970
CG 43.943665 39.134748 44.132248
CG 44.518235 28.380855 23.883444
CG 45.154728 38.485034 17.560446
CG 36.090554 41.959093 25.580650
CG 30.662800 45.448840 23.339859
CG 29.907927 35.609529 22.671121
CG 28.389610 41.221152 29.983324
CG 6.843666 31.593288 53.392783
CG 102.317896 18.292567 81.935781
CG 108.617076 18.013877 81.988764
CG 119.928707 21.875883 83.554396
CG 100.199316 5.270296 121.827160
CG 76.769449 115.793769 8.505779
CG 81.265362 3.148316 116.012125
CG 91.335160 119.837657 4.557539
CG 98.981739 120.472946 11.247777
CG 91.316532 15.764209 117.343404
CG 97.271957 14.101750 116.274695
CG 95.085220 116.676396 120.147006
CG 109.268866 10.974605 121.918500
CG 4.190489 45.142825 0.815591
CG 117.290590 26.252036 13.790527
CG 112.111490 9.735807 113.269032
CG 123.815117 17.670421 3.407169
CG 11.040976 29.777469 20.036752
CG 16.118444 26.333287 5.878635
50
frame
CG 69.969140 53.069624 6.303898
CG 64.025052 59.380439 18.179117
CG 63.629195 60.462317 20.389265
CG 64.223957 65.313022 15.502479
CG 58.615203 61.708914 28.233233
CG 55.778953 57.097466 20.579745
CG 61.836579 50.013892 21.217787
CG 63.031804 56.149938 123.133469
CG 64.887673 46.060753 9.467864
CG 58.198503 41.679462 4.084035
CG 63.700345 36.561389 13.764267
CG 60.766860 49.791516 9.169840
CG 65.090900 37.068322 18.525473
CG 55.580828 34.201279 23.495611
CG 64.361953 35.155086 24.556041
CG 64.560315 44.531834 16.106941
CG 61.752929 29.695159 19.142846
CG 53.107230 19.915638 28.618144
CG 54.652358 27.388756 29.798445
CG 50.561433 32.616803 23.483376
CG 47.805659 30.508655 18.143377
CG 49.013723 30.421756 26.897056
CG 52.243428 45.771194 28.940973
CG 53.358107 30.641791 16.310579
CG 53.497310 35.475828 19.982011
CG 48.419108 26.939770 30.739294
CG 37.852882 40.489602 38.275863
CG 31.616018 22.818054 37.446929
CG 26.767161 35.257297 47.388151
CG 4.631144 24.293679 74.279907
CG 108.408630 21.246132 89.692151
CG 116.276266 13.161901 79.571758
CG 5.333449 24.272544 67.550576
CG 5.802608 18.318824 76.114910
CG 117.064052 12.411762 74.568084
CG 0.152366 23.048606 60.729298
CG 124.481731 18.100910 72.986028
CG 109.687330 15.995736 105.283477
CG 80.671246 15.688650 119.389993
CG 87.721011 21.331341 121.631959
CG 87.658818 123.738709 7.719164
CG 108.352483 1.339814 17.715337
CG 118.795158 24.084763 5.301664
CG 119.319021 11.976637 14.383499
CG 115.708489 0.343007 112.694812
CG 112.524014 5.966636 3.759009
CG 120.492770 32.326942 119.888927
CG 112.720029 19.126655 4.829229
CG 116.745288 18.572674 118.588902
CG 2.271827 30.019557 13.665033
50
frame
CG 68.227114 56.516442 16.500691
CG 68.591816 49.545726 9.832182
CG 68.351695 54.350544 16.549699
CG 58.623971 46.556275 22.780586
CG 57.704077 56.420739 12.744292
CG 60.962436 61.285344 15.874702
CG 55.115328 59.673986 0.400591
CG 55.679286 46.758362 27.517522
CG 55.741105 45.673920 6.606356
CG 63.613089 41.655919 13.173462
CG 59.993255 50.383593 10.349031
CG 68.341216 33.995563 17.164387
CG 62.204004 45.783236 20.657367
CG 75.353563 43.258897 26.871147
CG 59.487471 36.293557 28.463029
CG 58.938589 23.548274 41.893732
CG 55.667350 37.443012 35.043016
CG 55.100972 42.184743 19.621355
CG 49.062420 36.584148 17.202584
CG 47.173171 34.589728 14.529801
CG 44.595785 37.653243 19.379961
CG 48.813518 41.764817 6.546393
CG 47.770176 28.425878 2.226809
CG 45.311871 42.987850 19.276949
CG 44.648672 32.462189 21.653255
CG 38.432433 40.468792 33.895264
CG 32.520314 15.505529 51.389898
CG 16.339045 23.983345 80.730319
CG 115.217105 2.263413 104.665552
CG 119.441906 11.068159 91.984012
CG 8.467874 10.649686 82.259791
CG 3.784018 19.714010 92.036378
CG 2.173770 10.951816 82.965398
CG 2.944437 18.831478 58.736323
CG 12.472653 23.793375 59.915719
CG 6.821929 23.475465 64.525876
CG 0.444432 41.417561 64.111647
CG 124.422408 34.623429 66.187394
CG 9.520622 28.579433 74.660661
CG 113.257532 16.563521 107.738513
CG 120.303509 28.327926 7.797474
CG 104.716588 21.745941 7.542981
CG 108.122888 2.619738 13.650813
CG 110.060228 3.194491 4.708882
CG 105.973786 5.266556 19.916738
CG 119.663459 13.520658 113.664372
CG 116.256245 1.053915 11.601304
CG 120.072194 23.999576 124.679615
CG 109.321592 27.939917 123.822441
CG 87.899418 11.197324 112.173560
50
frame
CG 65.409767 48.369296 19.314061
CG 64.473420 50.166261 22.348626
CG 59.603624 45.004179 9.556757
CG 66.918615 52.298892 4.144803
CG 65.746071 46.375591 0.787945
CG 56.303629 38.900103 12.237106
CG 56.033491 47.690530 19.214925
CG 57.793711 51.798309 10.187157
CG 55.874008 56.798042 19.346112
CG 59.392001 50.159176 28.987833
CG 63.093885 42.855341 21.067207
CG 66.248224 46.533464 27.434795
CG 65.990339 39.861111 24.440909
CG 58.623332 31.187437 29.930164
CG 62.902687 42.063078 35.112717
CG 59.386265 47.503723 25.295717
CG 50.749833 39.137292 25.718547
CG 50.930862 40.521038 30.572004
CG 49.458945 47.917831 19.693017
CG 50.400453 48.395634 8.963639
CG 51.565311 40.075115 123.135186
CG 41.263108 37.680226 8.947923
CG 36.702979 37.137252 17.979285
CG 33.727156 34.630488 21.125616
CG 22.406889 24.442066 43.261386
CG 11.573969 19.771937 68.530144
CG 122.363150 12.709459 87.940854
CG 124.657770 12.055702 87.798555
CG 19.479802 8.054091 78.716613
CG 18.736636 8.730721 94.505674
CG 8.387065 3.699337 95.467114
CG 10.186458 9.185122 68.859345
CG 10.528495 16.746662 73.372327
CG 8.508620 23.370817 85.197469
CG 6.778860 36.409992 71.311069
CG 5.118515 36.532935 68.377752
CG 16.478919 23.983133 68.193128
CG 17.333363 30.628991 68.314767
CG 27.269197 45.039771 82.017127
CG 30.682842 40.383808 76.396043
CG 17.819589 29.097714 73.315158
CG 0.351174 18.606666 98.477978
CG 106.106875 14.139993 5.551265
CG 103.045853 18.528916 123.919420
CG 115.764376 14.588452 13.498810
CG 108.265999 11.806406 24.256981
CG 98.718260 10.304358 2.745597
CG 91.123073 123.863918 110.359016
CG 88.201756 119.887979 123.296271
CG 105.243113 20.922683 113.997911
50
frame
CG 57.236513 40.225939 15.461634
CG 59.933851 46.444893 9.019062
CG 66.003873 45.693334 9.541388
CG 60.147174 39.306043 8.384586
CG 57.417144 36.553165 19.778648
CG 65.169348 46.204714 0.329880
CG 66.517241 39.213074 16.423875
CG 59.990305 45.850024 17.043542
CG 65.716801 41.893849 33.413657
CG 59.199680 54.606387 19.406405
CG 61.718203 48.391980 40.391522
CG 50.547671 46.799584 34.532844
CG 59.584316 38.983235 38.437199
CG 53.117911 53.811433 26.413503
CG 54.781957 41.850975 18.488233
CG 51.073665 47.464125 19.588981
CG 59.131391 54.439049 18.471385
CG 52.672656 51.842101 11.603149
CG 53.908631 43.081914 11.668896
CG 45.882682 42.057366 21.300694
CG 37.730359 48.079558 24.536735
CG 35.900046 38.411418 26.070248
CG 24.257074 36.926572 42.037878
CG 4.830261 11.867333 63.694667
CG 117.734510 20.027037 81.369615
CG 120.126403 3.720976 74.906444
CG 11.815277 20.551223 68.324051
CG 18.326367 2.558788 74.432079
CG 13.834767 19.025496 79.353913
CG 15.000953 7.726148 63.596019
CG 22.060551 18.644610 64.855431
CG 20.518635 13.214232 91.562265
CG 14.162970 27.831457 83.602551
CG 14.898594 27.635838 75.128984
CG 12.433861 16.053943 87.693947
CG 25.005329 28.189528 87.676622
CG 28.497671 41.098421 87.505541
CG 38.429974 41.094139 84.775064
CG 19.955740 21.255679 66.057042
CG 24.216121 32.524284 63.901690
CG 13.152877 29.201221 80.305668
CG 27.768559 36.432849 75.192929
CG 25.989998 44.312865 64.589490
CG 2.856068 25.610140 120.958521
CG 95.181156 19.743093 105.811323
CG 78.437231 4.831265 116.125950
CG 89.257513 10.115054 121.580153
CG 92.368837 7.579755 19.039440
CG 99.456486 7.633100 112.308655
CG 89.767135 104.941832 1.527827
50
frame
CG 59.428269 43.626497 123.173573
CG 55.678855 28.872255 4.526842
CG 52.969468 33.205342 18.637525
CG 59.048738 37.761055 16.739126
CG 66.987338 43.683391 11.807113
CG 64.099853 39.168878 30.094478
CG 64.432656 40.603192 18.583990
CG 71.917125 39.010880 26.378712
CG 69.100407 38.930996 17.849268
CG 73.213377 31.205333 45.969304
CG 47.968389 43.843817 109.669650
CG 25.778330 52.362601 48.108970
CG 69.916742 63.994700 73.955982
CG 43.514592 54.990398 10.768065
CG 44.563994 59.841685 15.865838
CG 53.258603 53.462990 12.841708
CG 50.139246 47.456949 4.991018
CG 51.570441 48.643803 11.421893
CG 42.469150 52.705332 25.409455
CG 37.684133 43.995471 29.962133
CG 25.724197 32.097668 57.617254
CG 6.569258 25.303565 79.675335
CG 119.715738 16.235156 85.560527
CG 0.515135 25.266782 81.022155
CG 15.672637 15.928240 61.918257
CG 15.953218 17.036773 68.137655
CG 9.911149 6.273628 69.267659
CG 9.936986 19.914904 53.441957
CG 13.205618 13.544624 53.442315
CG 19.275860 23.279756 71.548232
CG 18.492663 30.120390 72.687707
CG 18.871118 35.408191 64.076542
CG 27.529001 14.616669 81.406708
CG 33.394155 17.365256 95.484741
CG 42.928742 35.765789 94.059214
CG 39.827855 27.067209 92.410181
CG 24.104992 17.450181 85.799098
CG 18.847537 21.622369 80.697182
CG 26.950011 34.995777 87.170352
CG 22.810976 28.726574 87.443791
CG 36.446756 40.794398 63.984823
CG 16.452383 39.114328 77.235747
CG 1.800110 26.224512 78.534029
CG 1.552049 30.375647 42.330123
CG 0.621669 31.892595 68.253195
CG 120.673180 30.175850 93.510496
CG 93.671380 8.730510 106.640682
CG 84.962872 119.540149 111.222075
CG 85.863058 114.448857 15.799682
CG 87.702331 124.869124 11.087472
50
frame
CG 52.161236 20.101428 7.804174
CG 57.869875 39.409167 9.848207
CG 60.807227 36.559175 124.488060
CG 61.074509 33.211877 22.014083
CG 58.801602 33.915195 26.195405
CG 65.759789 33.288850 29.147628
CG 71.646016 39.720158 30.040625
CG 71.614033 28.984881 40.790620
CG 68.055919 39.220112 36.454521
CG 72.933888 44.572227 23.690789
CG 37.040860 46.740704 6.067835
CG 66.678377 45.540381 13.082576
CG 1.981770 57.343703 103.312247
CG 58.276081 57.407573 117.430434
CG 51.381632 63.574928 116.111284
CG 39.892169 58.800588 0.888030
CG 32.085758 56.272556 24.646992
CG 31.839061 46.172903 35.917609
CG 22.453442 33.722469 50.105458
CG 9.412146 31.154828 76.660181
CG 0.690113 22.961083 80.886701
CG 5.211241 26.030971 80.650323
CG 19.774145 19.966154 76.913156
CG 21.235038 22.414367 74.805147
CG 11.067293 13.165117 77.456195
CG 15.311578 31.485641 58.501989
CG 17.021574 21.852092 48.163865
CG 15.491113 28.415775 67.255142
CG 16.882403 26.556834 64.565904
CG 13.366359 39.052394 54.890658
CG 19.353818 15.195527 69.504524
CG 34.213145 20.685063 79.011418
CG 44.052452 41.365183 79.972181
CG 44.462338 35.844152 79.309131
CG 36.671627 13.008473 79.537447
CG 25.433726 14.444204 85.943514
CG 40.993494 27.058726 92.593165
CG 29.410869 20.330561 94.796951
CG 32.200177 30.041748 87.916417
CG 20.701231 34.667183 85.469040
CG 4.492739 26.841418 90.983418
CG 0.464797 20.910408 56.499631
CG 9.236550 31.249303 61.638625
CG 5.811911 37.225345 67.540453
CG 4.453538 17.765939 72.520561
CG 2.226553 14.746417 47.456786
CG 2.720266 15.680403 79.743537
CG 116.039122 20.444427 91.936148
CG 85.108436 5.909105 117.208814
CG 82.859298 5.523322 124.852227
50
frame
CG 59.994426 35.094381 16.039744
CG 57.013645 20.115347 17.694592
CG 59.796991 24.055718 26.873235
CG 63.048720 33.680973 12.971369
CG 67.103584 29.049909 24.292375
CG 67.066211 30.395748 26.922600
CG 63.467287 25.292281 45.984997
CG 66.066419 46.955867 25.157859
CG 86.007774 42.587876 47.318225
CG 85.338038 47.942171 43.711612
CG 101.510278 49.374218 5.908282
CG 56.498661 54.024890 118.418460
CG 35.933398 40.062638 112.172003
CG 26.289176 53.544887 108.739539
CG 34.249281 46.856292 4.931251
CG 32.421294 51.283232 22.210402
CG 24.580022 46.781436 36.288749
CG 121.131778 40.126147 65.719842
CG 117.987462 30.797367 81.288146
CG 0.435795 24.162253 78.833884
CG 18.198288 28.183380 69.965341
CG 26.602819 22.220395 67.148619
CG 17.688241 29.465336 68.502111
CG 17.673391 22.442510 60.948855
CG 23.096744 39.443726 60.676184
CG 18.176622 21.255671 73.975778
CG 18.494553 45.514365 78.734262
CG 21.464709 37.209400 57.886771
CG 22.224700 35.728872 66.133484
CG 33.173772 14.365519 78.066609
CG 42.975913 45.524326 68.271365
CG 37.145161 36.304663 71.278189
CG 26.763488 13.494919 67.704886
CG 26.908482 16.311884 68.324447
CG 34.896626 33.520163 79.297204
CG 44.061328 32.415917 80.362202
CG 32.371208 21.957432 82.389141
CG 36.260676 32.954193 88.306648
CG 11.198398 14.634494 90.986535
CG 9.668397 13.639725 70.967018
CG 4.979894 19.375657 72.727016
CG 13.226509 31.725406 90.055031
CG 5.032243 19.919617 74.701045
CG 4.592383 0.063615 77.239460
CG 6.562587 20.306838 61.103586
CG 123.796386 21.494614 87.113045
CG 120.909758 21.092471 69.013387
CG 119.756331 19.715540 73.302212
CG 8.461347 37.672617 53.306507
CG 116.421141 26.414142 68.255723
50
frame
CG 64.475067 23.041272 34.544521
CG 66.674733 31.302619 26.632379
CG 64.987205 27.683782 31.347344
CG 63.737949 14.053230 34.632372
CG 64.640831 23.450928 32.876067
CG 65.096908 38.613712 26.303556
CG 79.927209 43.252037 23.255569
CG 86.365217 38.872741 46.666097
CG 74.972172 43.376884 33.870151
CG 84.337344 48.388976 48.679832
CG 35.208147 42.580326 16.169119
CG 43.306334 46.301085 88.140878
CG 103.397316 49.854982 11.746687
CG 109.333601 36.633833 34.435980
CG 112.494101 30.989929 34.538539
CG 109.995345 28.122512 50.050835
CG 113.628945 22.899979 62.977410
CG 10.226415 29.012695 58.959083
CG 18.841028 40.314851 52.609979
CG 18.065143 36.920092 51.920816
CG 11.472099 31.686640 66.137387
CG 9.313655 30.620418 61.220915
CG 21.625313 35.533980 53.406187
CG 22.902741 38.390690 67.864816
CG 23.251333 42.052967 68.705454
CG 26.359177 47.357376 63.736349
CG 29.590357 33.673766 72.658671
CG 35.426458 24.959556 90.088528
CG 45.633389 45.587928 80.792863
CG 43.739763 50.795344 70.705555
CG 28.132605 21.903644 70.463585
CG 25.672692 16.001994 63.051476
CG 34.441029 36.920562 69.476585
CG 35.056242 33.856097 75.495136
CG 27.168533 23.785792 68.649246
CG 26.788584 29.389889 72.018908
CG 14.485766 28.212163 73.774304
CG 10.845342 14.976952 59.395185
CG 17.730929 21.869670 62.049503
CG 20.265876 23.518564 94.385516
CG 21.285688 11.531661 78.888580
CG 8.237800 117.742363 81.337450
CG 5.673201 3.696955 87.727402
CG 4.924344 25.068647 90.801434
CG 120.047433 15.495112 91.297739
CG 1.387656 14.265018 81.530350
CG 6.395034 34.822224 53.899417
CG 7.431222 34.913374 46.705226
CG 20.471906 33.320548 32.586183
CG 48.255160 53.934679 124.012663
50
frame
CG 71.893276 23.379561 40.879655
CG 70.471744 17.945420 53.847708
CG 70.160738 21.131401 37.714671
CG 71.029455 40.224642 41.208667
CG 75.983925 40.410187 32.198167
CG 85.847508 24.348825 49.516077
CG 76.468414 39.883988 33.626304
CG 77.284860 39.467344 34.938070
CG 81.833239 43.534989 36.315950
CG 70.757554 34.941338 38.206088
CG 79.618521 44.360928 5.472818
CG 77.112229 30.245882 78.989380
CG 47.190104 29.978823 112.360911
CG 52.400119 23.191923 0.897449
CG 57.017900 26.037138 110.075866
CG 86.365363 15.473512 72.775766
CG 110.005381 26.499159 49.282236
CG 2.628074 26.500767 37.434597
CG 7.809437 21.156997 43.404514
CG 17.430858 36.998881 45.782140
CG 19.842567 46.234421 33.894945
CG 18.224618 54.533534 52.234363
CG 14.143846 44.368951 69.682193
CG 20.155540 53.401986 61.053561
CG 28.016172 31.264607 68.283134
CG 40.591020 40.601751 82.533179
CG 49.330616 41.286692 72.355248
CG 48.040510 62.170716 71.028009
CG 33.989128 19.161822 77.243327
CG 25.782374 24.498788 76.504977
CG 38.086925 38.300590 78.583728
CG 41.898054 50.916464 79.238626
CG 29.241719 30.043216 71.936686
CG 23.052737 30.123839 63.839323
CG 16.806176 31.258362 65.190579
CG 122.422350 15.547134 55.435928
CG 15.761375 20.935354 48.793092
CG 12.051371 23.716667 76.112323
CG 22.064734 20.485358 71.974959
CG 12.598710 122.760966 56.976810
CG 13.269279 4.493502 87.328770
CG 14.142374 19.547433 87.856652
CG 12.567260 11.604015 94.564600
CG 3.009283 5.056468 82.678777
CG 11.243870 20.076601 78.837690
CG 14.008318 41.172524 41.996107
CG 23.429230 25.517556 56.893720
CG 54.178984 47.672773 8.563765
CG 45.639125 51.576826 2.604468
CG 30.825373 37.510414 19.073257
50
frame
CG 70.446386 20.697450 47.380517
CG 71.807959 30.830554 35.898846
CG 74.019804 33.038410 43.654998
CG 77.162740 21.184390 43.932057
CG 75.276492 28.031039 43.334257
CG 71.620376 43.748519 31.307310
CG 80.015277 36.321509 39.271941
CG 79.221027 34.982219 37.796229
CG 74.853267 36.990653 19.383462
CG 78.876208 39.286715 120.301035
CG 64.154435 31.154206 7.023383
CG 58.732664 33.567762 28.181495
CG 75.650857 31.315529 114.044523
CG 78.929196 27.279465 79.055833
CG 85.407410 24.440772 76.871709
CG 88.386280 29.071373 82.723944
CG 95.642684 22.575321 76.852033
CG 110.808962 26.416760 62.713185
CG 1.811184 38.784989 45.029003
CG 8.325310 37.243229 43.564920
CG 11.377745 35.783193 59.349357
CG 17.996028 39.174871 53.352399
CG 25.635663 44.796652 49.781780
CG 28.972094 39.998165 68.156169
CG 32.448205 51.202472 70.898710
CG 32.737890 48.224205 63.517415
CG 30.510207 35.195002 74.605942
CG 32.726795 22.050737 78.832108
CG 42.901679 49.486446 74.564741
CG 46.034027 49.591785 75.753823
CG 30.914645 30.206091 74.124995
CG 23.467173 22.550963 69.720365
CG 27.397269 37.429518 70.598849
CG 21.141971 32.278092 68.745882
CG 18.479096 23.785252 60.963184
CG 24.904326 30.247032 68.360518
CG 12.731296 22.574764 72.896888
CG 11.578074 10.107003 54.665912
CG 9.616941 9.803736 66.815395
CG 15.798159 23.932320 87.545765
CG 15.292158 16.050181 75.291317
CG 9.880260 1.601695 75.417539
CG 10.264268 13.816786 75.152233
CG 17.591535 29.483598 70.265778
CG 17.820856 22.781243 63.013475
CG 28.493142 20.892343 57.679703
CG 31.096844 40.946681 30.066324
CG 17.616642 34.184905 40.781285
CG 29.099272 32.367968 35.798989
CG 48.049559 49.046472 8.182306
50
frame
CG 74.445126 40.160738 36.330722
CG 76.584402 26.145668 42.529283
CG 76.121096 25.610793 46.226135
CG 72.615438 35.927615 32.180782
CG 75.995649 30.550811 43.802988
CG 73.636965 27.535411 36.260089
CG 71.498735 28.842807 23.519663
CG 71.286466 39.645991 120.090398
CG 65.469792 26.403513 7.561264
CG 63.494336 29.689988 26.040566
CG 73.550969 27.163388 5.323336
CG 85.676747 33.086856 111.539107
CG 99.298328 27.890102 100.390897
CG 99.874357 37.416842 109.899163
CG 112.379652 32.228948 82.355869
CG 105.357195 35.721748 70.145854
CG 102.417593 39.325762 75.367876
CG 93.794626 41.361437 88.744416
CG 97.859544 34.624856 93.170565
CG 110.375075 30.268915 76.317039
CG 6.298217 34.903148 59.491423
CG 18.775842 25.783448 60.705371
CG 28.597653 37.540005 63.104649
CG 30.998860 38.360092 53.502298
CG 27.113439 42.403457 55.175171
CG 21.358924 27.136761 67.340105
CG 25.699248 52.684617 69.476974
CG 29.726901 44.464565 67.714598
CG 27.625750 39.193586 72.208869
CG 27.387621 23.620831 70.639621
CG 32.356079 44.984899 66.115729
CG 26.904978 34.679140 65.941650
CG 18.652716 21.132572 64.175969
CG 25.418427 23.215508 71.927394
CG 26.435104 30.180457 79.668774
CG 29.287318 23.383814 71.061168
CG 18.964464 15.531534 74.717372
CG 24.278589 28.618236 84.470467
CG 9.899858 21.595601 77.289991
CG 7.668278 13.023984 66.601355
CG 7.248944 19.324333 59.845877
CG 19.118355 35.438528 64.263468
CG 23.339962 28.174337 44.205907
CG 32.280974 18.132028 45.577955
CG 32.769750 33.352406 31.742748
CG 21.795817 27.111814 58.190647
CG 20.899736 24.187440 51.551023
CG 25.961362 24.036912 54.175279
CG 30.067364 37.875907 38.677230
CG 15.059716 26.878888 60.864731
50
frame
CG 82.116378 30.515859 39.978524
CG 75.866498 45.269403 37.002838
CG 74.624045 39.251539 27.884573
CG 75.059270 29.912108 42.670997
CG 69.922891 30.758399 14.333616
CG 72.670165 26.924037 5.540353
CG 62.078897 26.809034 4.408467
CG 58.097510 13.621877 30.203066
CG 72.454133 27.425425 9.112568
CG 81.234391 25.634780 106.284673
CG 99.757088 30.895520 106.190494
CG 109.147701 26.307148 97.501518
CG 103.618882 36.349274 107.264463
CG 116.737587 34.746085 95.372343
CG 106.827081 47.978956 108.692967
CG 110.785584 45.693388 114.672402
CG 110.713982 45.666852 100.166974
CG 110.993359 38.209999 83.698492
CG 107.114455 34.006371 87.400824
CG 108.859205 34.855355 104.641387
CG 112.466610 29.924069 97.216665
CG 122.470488 38.556878 79.125525
CG 4.215292 23.750893 65.405387
CG 10.141080 23.970622 62.735782
CG 20.042095 25.092631 62.503585
CG 28.232108 49.323393 56.995156
CG 21.283512 29.912662 51.091537
CG 12.325872 41.623195 57.961594
CG 11.303091 33.016295 57.480044
CG 13.519188 42.590323 59.064971
CG 18.718958 21.147979 65.985422
CG 31.292841 30.454387 72.200358
CG 35.446061 35.401707 76.913241
CG 30.344104 26.917021 70.353862
CG 24.940684 14.062210 74.766710
CG 16.068149 18.947304 89.846494
CG 31.331756 33.829086 82.790372
CG 17.058006 21.594144 80.070206
CG 25.763262 29.451999 69.163884
CG 23.353419 38.304211 55.155142
CG 24.350649 36.270159 52.679119
CG 25.969880 28.173763 27.294148
CG 31.901527 36.255056 32.701799
CG 20.993039 38.271670 37.530790
CG 24.435600 22.088726 50.972109
CG 31.306047 28.614634 26.038671
CG 29.030396 24.121040 55.564318
CG 22.532024 26.354893 63.363386
CG 4.408922 12.683679 86.856025
CG 9.798577 15.015001 80.371982
50
frame
CG 75.149361 45.557734 30.868627
CG 80.918696 30.842755 30.092235
CG 75.943024 37.051507 18.709436
CG 72.464728 36.761122 121.377231
CG 65.454028 31.025140 3.528739
CG 56.855820 23.306911 24.188677
CG 74.138969 21.566622 10.002340
CG 88.264181 23.492784 106.732363
CG 93.642580 22.431146 104.070036
CG 107.574950 19.434015 106.633113
CG 101.150962 29.086471 103.139892
CG 105.000817 36.023098 105.596321
CG 114.795258 42.661736 104.532109
CG 108.441967 42.310503 110.707276
CG 109.882375 41.483167 118.901232
CG 116.740461 41.191318 109.375461
CG 115.004354 38.566342 120.734993
CG 124.415402 39.930067 4.261798
CG 3.394461 43.240953 106.969587
CG 122.470784 40.772467 82.526930
CG 107.849614 31.037283 94.245563
CG 99.773196 24.546852 104.469681
CG 104.377822 28.575605 96.925388
CG 117.702151 38.634266 84.740520
CG 122.422500 26.629358 63.286751
CG 123.499957 20.809584 52.431705
CG 5.252024 22.760457 54.470854
CG 10.237175 27.285656 45.570082
CG 13.423573 28.454940 47.453388
CG 16.854905 33.131141 60.021086
CG 18.988964 34.850933 68.132080
CG 14.596991 28.272161 65.871101
CG 22.871656 17.302592 74.062256
CG 24.686798 26.075707 89.905871
CG 32.554883 38.514812 82.208594
CG 29.998010 30.873313 71.962095
CG 19.188762 21.790108 72.336977
CG 27.676441 35.361508 56.112976
CG 37.401443 43.750192 54.312178
CG 40.610361 38.914023 48.124272
CG 46.109313 43.050491 33.541388
CG 29.474461 41.683073 41.917124
CG 20.263087 30.621219 50.218106
CG 29.201265 33.478555 24.608526
CG 25.330639 34.763784 40.794601
CG 19.489260 28.335125 64.388038
CG 11.018966 18.960307 67.818788
CG 8.681768 11.917708 67.379949
CG 15.295209 7.587933 84.765001
CG 12.187963 11.846490 88.196494
50
frame
CG 74.992264 34.593455 5.402996
CG 68.445144 41.249552 116.526477
CG 67.909955 32.058154 3.783959
CG 64.253960 26.743310 13.684786
CG 79.382290 27.158057 14.719573
CG 94.752881 33.706269 94.606090
CG 96.262691 27.475283 101.929389
CG 104.559780 30.931739 102.822769
CG 107.345786 22.758818 104.495783
CG 103.889314 37.265162 107.758241
CG 110.802623 31.468177 107.074673
CG 107.232025 37.969049 117.485569
CG 103.902984 31.832962 115.580752
CG 107.715469 41.880450 123.403949
CG 123.849249 32.801499 110.569277
CG 118.981355 35.601115 2.522559
CG 6.192786 39.501983 121.368570
CG 123.538627 42.960611 107.756376
CG 115.568938 34.800333 0.954628
CG 113.856837 28.999377 8.155890
CG 121.900360 42.774907 104.986970
CG 119.170805 39.749920 86.666818
CG 104.484523 37.532127 92.510065
CG 88.332603 16.971453 89.788279
CG 89.589328 30.051604 89.545645
CG 99.714247 15.167799 78.630299
CG 112.695565 27.423260 59.205800
CG 3.310298 12.052086 59.699078
CG 11.817800 24.966760 65.497447
CG 12.425034 5.041671 60.222606
CG 31.878158 88.532313 9.852222
CG 14.722461 33.383437 82.436816
CG 10.357653 39.988837 73.631966
CG 17.516409 32.585170 62.713832
CG 16.224831 25.238245 69.664604
CG 34.527450 42.018685 58.251295
CG 42.274767 50.548474 46.257015
CG 52.230665 47.329164 46.107133
CG 36.722010 33.152079 36.660100
CG 36.978800 40.221720 41.633594
CG 27.317909 35.990898 53.429360
CG 44.238617 41.723513 50.681390
CG 41.536533 44.246428 35.413048
CG 31.087096 34.696745 80.358223
CG 112.352687 89.607009 102.819341
CG 5.584586 10.487781 62.977810
CG 11.599620 19.066881 68.248692
CG 12.524121 13.040808 91.306785
CG 16.651142 20.785536 62.461693
CG 15.521297 5.420370 70.959593
50
frame
CG 59.814515 28.308320 89.082467
CG 62.482289 27.045253 118.246825
CG 76.240840 28.218314 115.351562
CG 96.534101 35.179443 98.843433
CG 98.653796 32.647251 85.494829
CG 109.119080 29.317495 108.368369
CG 113.598590 36.892245 99.980016
CG 107.986549 37.496819 104.290698
CG 110.470543 48.143644 107.170278
CG 107.587863 37.933515 110.416728
CG 106.686305 36.427121 122.750112
CG 110.154974 32.479194 116.958651
CG 117.204675 31.377419 123.361816
CG 123.439476 23.927962 120.153366
CG 115.544918 36.376988 3.989132
CG 123.127040 38.665939 115.828791
CG 115.329103 31.804002 116.068830
CG 113.011699 24.164365 7.648817
CG 122.212364 35.536980 115.901385
CG 121.167628 46.238365 109.222815
CG 109.680502 32.865214 124.613987
CG 103.153783 30.196952 121.037090
CG 106.519943 30.831672 94.480857
CG 105.488574 32.111510 84.101616
CG 98.034415 21.759918 86.948041
CG 95.535479 27.486235 95.578130
CG 97.312927 12.564638 103.604171
CG 100.352001 8.047879 93.845066
CG 107.841505 105.901978 73.326127
CG 106.671696 113.684989 75.140799
CG 54.978808 80.807941 24.738886
CG 13.165131 58.379595 70.873953
CG 13.631570 58.782996 75.692012
CG 19.388139 53.233496 56.712079
CG 28.825189 56.065923 33.092871
CG 30.349201 44.473098 38.322931
CG 40.455052 39.804704 37.770261
CG 32.192050 40.050275 41.041962
CG 42.108729 49.198317 49.986750
CG 44.739879 43.670194 48.016885
CG 42.390338 40.094792 46.225607
CG 32.123500 36.118663 72.018995
CG 43.812439 55.560966 104.706938
CG 50.305136 64.471017 95.179293
CG 70.246768 82.780958 47.810911
CG 17.429661 112.520594 74.319419
CG 10.873942 117.524633 63.127192
CG 14.314535 10.030841 47.772938
CG 9.395514 8.825738 69.080508
CG 17.039585 25.524677 59.924631
50
frame
CG 67.994371 21.488220 104.940572
CG 89.488002 21.142092 66.291049
CG 94.298148 30.804891 52.063312
CG 102.333903 28.610497 78.723122
CG 112.297124 37.454851 87.541172
CG 105.954066 42.433032 97.735482
CG 109.444741 46.851306 101.275376
CG 114.997035 43.714820 111.869523
CG 109.578417 41.778883 117.194677
CG 116.802835 37.950411 119.276035
CG 116.742716 42.929140 115.468775
CG 122.733109 30.042037 121.018656
CG 121.480437 36.576954 0.789606
CG 118.159356 36.512537 117.430124
CG 114.939477 26.571060 121.695582
CG 111.467777 15.917054 1.156438
CG 109.255017 30.400911 2.532323
CG 120.833986 41.924483 111.661075
CG 108.467569 29.676521 118.286594
CG 102.904589 20.392468 118.870274
CG 105.948882 27.128310 102.404634
CG 107.853087 33.661175 105.269490
CG 103.592942 21.156809 122.659926
CG 110.766559 34.118607 2.015187
CG 115.588127 21.059828 109.788591
CG 106.892652 12.113181 100.064492
CG 92.605091 111.267725 99.919197
CG 75.054999 116.489258 106.481332
CG 59.671722 114.991982 118.330692
CG 58.759039 117.627487 109.255207
CG 80.503351 84.641228 43.662031
CG 27.889243 66.854763 40.986228
CG 38.904538 62.821653 28.862079
CG 29.521639 73.383597 44.311947
CG 33.149058 68.691973 50.592800
CG 23.712633 56.416504 37.385244
CG 19.828420 51.168191 41.232516
CG 29.333080 45.062688 42.037712
CG 39.734794 43.000355 49.392151
CG 31.885773 41.982241 74.040724
CG 54.557244 64.389401 102.091993
CG 57.239574 71.525020 96.736985
CG 50.030770 45.829649 105.001616
CG 54.076730 47.929159 121.174442
CG 0.912319 87.225732 100.719318
CG 25.843717 123.532738 39.167323
CG 24.529851 112.747359 59.613432
CG 17.659480 116.852160 53.101887
CG 16.197864 2.513802 50.875848
CG 6.306486 7.196292 50.225034
50
frame
CG 4.478049 23.278818 27.049407
CG 106.351506 28.075838 64.170652
CG 105.489919 25.991628 84.895255
CG 98.534386 33.855661 62.096350
CG 99.889288 40.280239 77.097750
CG 110.383912 44.519270 75.875992
CG 108.511525 39.158504 106.003838
CG 110.969045 44.747805 108.984128
CG 121.603743 36.876273 111.350132
CG 124.111540 42.017196 119.305517
CG 3.498662 33.876117 120.941551
CG 121.276500 49.000598 120.610122
CG 115.035392 33.091234 110.636367
CG 110.129147 26.124396 5.771055
CG 116.218597 28.537713 119.428394
CG 112.203343 42.752366 118.089827
CG 114.352498 23.421796 116.684737
CG 94.978691 11.307906 116.829308
CG 97.433762 22.295862 112.446648
CG 105.322744 27.819578 107.895092
CG 104.713093 22.163614 119.900842
CG 109.331675 15.960926 123.160336
CG 116.566318 26.636267 117.757456
CG 106.452186 124.085959 118.390816
CG 94.565538 121.234451 11.889593
CG 88.500493 112.349486 13.266885
CG 76.726071 9.567097 0.008689
CG 66.435501 116.178948 122.740210
CG 51.099082 5.290727 11.727218
CG 28.701129 4.281323 39.129460
CG 78.560839 104.849198 32.780583
CG 74.679578 59.827671 6.546806
CG 47.190525 69.286363 22.157831
CG 41.445155 63.015375 19.601591
CG 24.583595 57.757697 34.772406
CG 32.443977 75.057811 54.055957
CG 32.083506 70.161908 61.013923
CG 29.200399 64.706118 76.224267
CG 26.022936 64.169864 93.986849
CG 50.746780 76.000453 95.598112
CG 39.058018 48.366126 100.696108
CG 53.177706 47.380378 123.763037
CG 62.298448 71.636172 108.603566
CG 56.969041 60.803340 102.063382
CG 74.142804 82.037134 18.042379
CG 17.279344 112.914684 46.094558
CG 21.840619 6.819754 30.878221
CG 19.662503 119.129257 49.619862
CG 18.881075 110.456673 37.482178
CG 19.592154 92.397463 45.104581
50
frame
CG 13.134701 34.970203 47.018357
CG 18.870768 33.980765 30.115804
CG 5.404216 36.506348 41.442277
CG 118.528846 40.951467 76.183292
CG 105.210657 30.391590 85.831421
CG 101.810629 30.061778 89.824930
CG 114.034979 35.842879 76.392424
CG 120.294815 34.354718 86.717840
CG 122.995526 41.682545 107.101716
CG 118.455866 43.416322 106.038518
CG 115.290702 39.404397 111.979231
CG 114.002141 26.830386 119.381129
CG 119.618439 34.396476 1.624449
CG 119.936599 47.207418 108.639184
CG 107.494003 36.742186 114.604900
CG 101.712339 15.631442 115.677633
CG 96.085422 24.034796 106.395290
CG 103.600315 28.878337 115.174171
CG 109.707306 15.005020 116.402691
CG 101.727205 9.894269 0.279600
CG 108.329514 14.811403 0.979218
CG 103.167975 0.755785 123.824734
CG 91.712115 108.206607 7.153674
CG 86.072486 110.524687 11.084368
CG 76.515681 0.773069 5.222666
CG 62.884972 122.667400 17.143618
CG 53.550570 123.551547 51.861502
CG 44.912800 16.871863 68.306642
CG 50.338835 15.515492 45.634815
CG 60.464169 8.335363 22.076362
CG 43.055440 103.753502 26.473692
CG 79.333174 71.186396 2.911846
CG 73.294742 63.639130 9.122860
CG 68.472338 62.080400 23.790131
CG 57.756579 75.672838 32.962441
CG 42.731238 65.115539 58.228820
CG 38.409423 75.237896 88.214816
CG 47.109707 97.649083 106.733524
CG 44.740156 83.868224 111.017386
CG 37.551076 61.961210 120.927549
CG 44.256648 76.635838 104.953150
CG 44.157751 67.967855 88.852702
CG 43.960535 47.305171 100.160346
CG 53.141726 56.507986 92.191202
CG 12.096623 108.311529 111.368102
CG 25.808134 1.777347 19.023660
CG 17.259544 100.626356 26.489095
CG 22.298123 96.408584 21.252724
CG 24.839100 91.216858 35.992651
CG 32.585691 102.432735 32.440672
50
frame
CG 18.362124 47.682658 47.978466
CG 18.748798 46.583205 62.653029
CG 16.879930 41.481793 52.011334
CG 21.081771 26.198412 51.614599
CG 22.286219 35.088601 46.177189
CG 7.989750 31.454538 77.952375
CG 117.817021 30.835934 90.286955
CG 111.353307 32.308657 88.186525
CG 105.265192 34.383555 73.197728
CG 111.313613 22.493553 90.550516
CG 111.895420 38.603816 106.328741
CG 117.420199 43.332090 99.204171
CG 107.245953 41.605391 106.461098
CG 102.834444 16.429028 111.137809
CG 103.436610 26.526415 110.471745
CG 108.198274 36.643715 104.734099
CG 106.286937 27.041926 121.169561
CG 110.291082 14.182570 117.476324
CG 101.806107 16.171602 0.501396
CG 105.606608 1.400883 4.361477
CG 91.356990 98.884959 2.935692
CG 78.177335 106.908804 14.376429
CG 67.713029 114.812860 15.048640
CG 57.646865 4.327587 24.973380
CG 50.064588 111.056043 49.634541
CG 45.922143 15.262941 65.422702
CG 50.337777 8.501749 47.192581
CG 58.132052 9.584664 37.214754
CG 49.535120 3.377508 71.276164
CG 46.339069 21.116997 85.242780
CG 7.883196 98.490086 11.235149
CG 90.582222 73.682501 20.977856
CG 96.448827 76.845014 18.214866
CG 80.089655 81.317769 42.786084
CG 88.384094 75.788080 68.104042
CG 84.237546 88.719422 75.290390
CG 73.504925 87.822096 81.825013
CG 51.147497 58.835267 93.928681
CG 56.289843 82.893039 98.375753
CG 43.685932 94.132813 92.619780
CG 47.741946 79.101684 108.311033
CG 37.830378 75.073965 95.961438
CG 32.112598 83.091477 78.627183
CG 18.484273 74.923335 81.763330
CG 75.296681 57.168355 108.361339
CG 32.242884 101.151736 0.237850
CG 36.994369 103.370501 10.873808
CG 34.976591 104.841120 8.358420
CG 33.917475 100.445708 13.203927
CG 25.527081 94.574612 13.391083
50
frame
CG 18.269874 43.182324 58.704596
CG 18.872430 38.251537 46.190409
CG 20.217306 37.931199 53.790150
CG 12.498335 42.907160 65.407695
CG 3.640939 33.106924 76.981187
CG 3.657103 31.920014 65.145234
CG 2.691218 33.302167 63.149625
CG 121.480244 29.687353 80.221606
CG 117.646819 31.241744 100.494609
CG 111.882621 42.110730 93.334340
CG 108.934824 32.882515 88.304314
CG 104.436715 24.088819 103.017369
CG 109.608027 27.240389 105.609580
CG 111.515099 43.799553 104.013679
CG 108.154705 31.890808 110.937329
CG 104.754123 16.333221 118.930883
CG 105.389062 19.777343 113.221860
CG 102.664733 19.008483 120.715074
CG 101.500250 124.951993 123.340774
CG 90.327387 121.979245 2.496216
CG 86.023971 8.074674 10.779521
CG 80.810924 124.122143 13.600926
CG 71.066257 112.969039 28.043729
CG 63.302885 115.518980 38.885841
CG 59.862763 8.347045 31.305966
CG 58.013135 122.490403 30.471453
CG 50.836268 1.553189 59.651712
CG 40.982299 8.172283 83.194184
CG 29.218348 121.619958 86.414613
CG 8.285471 94.942917 100.189017
CG 8.369861 108.475968 100.961054
CG 8.214913 112.923589 1.673416
CG 106.147884 91.188836 38.586498
CG 95.407117 80.724906 46.941669
CG 80.603314 83.697130 49.448592
CG 68.685554 71.278286 67.609433
CG 68.032883 74.831546 81.947656
CG 69.228076 96.992724 84.159262
CG 55.562363 80.044748 91.067492
CG 50.132867 68.037673 97.961638
CG 40.443398 82.974979 84.727364
CG 38.486826 83.716152 90.247875
CG 50.919549 71.023802 108.891257
CG 50.572190 84.529507 113.756116
CG 17.293960 101.675341 106.519014
CG 40.198061 81.529259 108.972690
CG 45.298671 83.494209 119.216967
CG 33.860519 94.571886 7.673381
CG 29.701622 98.992691 9.862824
CG 35.018577 102.443654 11.452138
50
frame
CG 19.293873 28.652404 51.511207
CG 12.675416 37.686457 66.521358
CG 3.603493 37.067795 79.113403
CG 1.105846 39.612896 65.281862
CG 1.272289 39.929191 67.049979
CG 0.356073 40.594000 71.257055
CG 3.248001 33.955548 84.686177
CG 5.599985 40.786623 73.158703
CG 4.294982 34.524574 75.482308
CG 117.475151 27.663146 91.965095
CG 113.345946 23.512075 101.429653
CG 108.897226 38.510244 94.975530
CG 108.448244 27.024961 94.627502
CG 107.069584 19.356852 109.736574
CG 110.912552 20.974988 110.370228
CG 106.244525 25.191491 116.046880
CG 100.730862 5.481308 118.329583
CG 87.452622 122.989139 0.024716
CG 85.430222 12.786026 0.096075
CG 79.936731 18.388650 7.776011
CG 79.277769 12.195902 21.239970
CG 75.461594 9.765186 28.761439
CG 79.074158 23.270852 26.921724
CG 80.747298 124.747737 19.918847
CG 71.847479 121.391359 39.168881
CG 56.570830 112.447581 60.754878
CG 36.252746 115.153001 71.612701
CG 10.043908 84.698061 90.005941
CG 5.821211 100.291558 96.551055
CG 4.983416 106.093080 118.491203
CG 3.321416 110.624287 118.905551
CG 6.813937 102.185884 1.960258
CG 123.495863 115.650251 4.225544
CG 118.750635 106.094517 25.027766
CG 90.395438 89.664168 50.166310
CG 81.419990 90.532306 53.732218
CG 64.851023 80.853540 56.829124
CG 63.905465 74.076718 69.301053
CG 57.056572 77.344239 69.382356
CG 62.757654 87.712979 77.506417
CG 60.161383 72.232796 95.827233
CG 61.808593 78.026716 115.167202
CG 31.101706 102.457525 112.889078
CG 48.959665 92.439075 117.480709
CG 34.853213 90.677128 121.182259
CG 42.840781 84.543988 119.468190
CG 15.257211 93.597117 107.328201
CG 39.133002 79.985781 109.347354
CG 45.697163 86.187280 117.589119
CG 38.667596 96.922054 2.037346
50
frame
CG 121.900076 33.665149 86.618203
CG 0.256104 27.107019 75.003756
CG 0.908689 33.686124 59.066531
CG 1.473220 32.298696 78.468318
CG 3.547351 40.797043 78.689529
CG 4.037684 43.027284 81.986563
CG 1.014214 46.060003 73.904951
CG 122.295997 33.537709 88.096929
CG 120.491436 30.905953 83.356250
CG 5.341420 31.501373 75.628313
CG 1.390657 36.026349 81.699948
CG 123.494098 15.881163 97.101817
CG 112.516396 22.049021 109.280576
CG 106.167873 14.572664 101.819638
CG 96.879942 4.429535 107.677363
CG 92.579795 122.906915 111.879214
CG 85.995796 17.048364 0.986119
CG 88.052287 26.001443 0.701665
CG 75.687715 16.954636 17.724373
CG 77.406156 13.288794 25.965571
CG 75.805607 22.126051 15.641581
CG 81.262386 25.636830 16.666651
CG 77.700210 7.143403 30.417454
CG 64.933953 17.790735 56.553550
CG 51.620557 116.635622 68.433968
CG 32.450796 101.189513 78.916419
CG 24.613898 82.066526 81.405004
CG 27.031564 102.211427 86.701015
CG 12.178054 94.181594 111.142799
CG 10.276935 102.628685 106.156065
CG 123.955307 97.958867 8.126012
CG 106.928817 105.156541 12.175942
CG 116.819067 100.976626 9.838271
CG 107.296015 111.473353 9.202745
CG 117.509038 115.388760 8.762377
CG 107.457203 106.151423 24.503889
CG 90.293745 97.141732 38.444266
CG 70.555024 79.180928 44.275421
CG 76.739093 79.859980 66.483814
CG 66.685099 80.201108 84.151068
CG 58.401281 99.854328 99.909716
CG 56.120553 100.000299 99.216165
CG 63.972446 83.095951 109.491315
CG 32.977763 86.087818 115.037250
CG 52.677514 83.929765 115.015294
CG 28.448660 99.954282 115.640496
CG 53.556453 85.824460 123.198949
CG 37.751026 93.848283 112.392283
CG 28.762824 87.292743 100.421855
CG 47.504545 64.818168 89.242565
50
frame
CG 107.769415 30.804379 84.301073
CG 110.271506 33.338779 91.650080
CG 121.836004 31.698232 96.372962
CG 2.812727 36.281342 81.900966
CG 0.282113 33.719513 77.235700
CG 123.550228 29.962127 83.789999
CG 122.032982 32.385395 85.752397
CG 0.338543 37.138654 79.586430
CG 2.425399 42.034075 84.375731
CG 122.573639 28.606081 93.779145
CG 123.348768 18.988218 90.437923
CG 122.172925 17.467772 86.308107
CG 117.299665 5.806863 89.706251
CG 106.257638 2.235165 104.544695
CG 91.188238 15.146204 118.386195
CG 84.365496 20.161335 119.816012
CG 77.707302 13.667984 0.380604
CG 76.852734 13.535308 16.952108
CG 84.163548 25.923633 13.512314
CG 83.423334 30.862375 8.606231
CG 76.990533 15.249962 32.308895
CG 62.828872 9.637758 52.880811
CG 45.383945 0.684266 62.809739
CG 33.318976 110.767963 71.827971
CG 27.933524 107.159183 74.947357
CG 36.438017 121.095481 80.364730
CG 32.585211 113.093034 104.077944
CG 27.592966 107.321618 105.038327
CG 23.289307 94.018926 105.089145
CG 2.578882 90.715906 117.836015
CG 122.306611 93.984311 114.778333
CG 121.870325 104.882501 116.004420
CG 106.523014 102.414767 12.318875
CG 105.584024 100.608763 10.260285
CG 106.058666 104.378685 2.997855
CG 101.396225 102.199399 2.022474
CG 122.989329 109.219535 18.245525
CG 117.970590 122.239478 43.776828
CG 87.126645 115.125722 63.455475
CG 70.192274 98.475183 69.423651
CG 74.098738 87.505408 72.971077
CG 49.294635 84.945323 86.119157
CG 60.963056 87.284768 97.668707
CG 62.213047 97.993406 97.889699
CG 54.970877 91.180489 107.731895
CG 54.084668 82.179083 108.990704
CG 50.461237 85.462455 102.297785
CG 43.399092 78.928750 98.110378
CG 55.406111 66.112865 93.730915
CG 27.200735 86.922615 89.849932
50
frame
CG 111.087995 32.435335 99.913196
CG 112.342462 37.558374 93.649561
CG 105.900816 33.727527 99.045331
CG 106.784781 28.864008 98.700804
CG 116.082862 24.669403 101.967833
CG 122.449894 31.903958 79.575450
CG 2.068856 26.732635 86.819773
CG 123.754682 26.582726 92.437706
CG 122.849908 15.813690 94.075407
CG 119.009815 22.773706 89.350420
CG 115.451247 12.766066 95.297530
CG 104.372039 14.369069 101.669795
CG 100.757012 14.903834 100.984606
CG 98.367324 25.496195 106.185342
CG 101.030504 14.958226 106.348466
CG 91.032295 18.612790 7.080669
CG 90.730619 23.248217 8.030524
CG 81.670427 23.591305 1.306232
CG 75.854451 12.086012 16.453255
CG 60.838634 4.370338 49.297341
CG 50.402174 5.504592 58.533376
CG 34.575671 113.249561 63.990181
CG 30.048316 117.478578 76.597820
CG 33.896496 113.176221 75.379795
CG 32.172298 2.721210 94.998848
CG 25.460762 109.515987 103.583345
CG 26.011044 124.238121 93.540323
CG 13.202941 105.025313 111.427734
CG 12.920691 118.115116 109.095945
CG 17.010046 108.084636 111.771563
CG 6.951813 103.120014 109.288515
CG 123.623030 84.252757 119.469703
CG 117.176138 98.292779 101.870145
CG 118.326921 96.926490 113.494326
CG 107.812540 94.806447 21.811508
CG 120.843329 117.085931 33.542227
CG 94.817249 121.373332 30.767058
CG 99.372530 117.197266 27.188498
CG 116.248497 115.896712 23.192131
CG 109.180942 1.638424 43.127486
CG 80.781189 105.341585 59.912373
CG 91.069944 96.041479 68.501306
CG 58.277528 99.666747 67.267553
CG 72.666975 77.853517 81.826580
CG 59.259513 87.987142 80.377057
CG 77.608314 77.764747 78.949713
CG 50.054833 72.887229 77.972087
CG 54.436443 71.822336 85.400176
CG 39.398788 91.449216 92.957580
CG 57.678757 77.574138 104.195635
50
frame
CG 111.244153 40.540615 107.093436
CG 106.242845 26.172328 110.304234
CG 107.398201 28.223287 97.941502
CG 107.904419 29.523531 99.748285
CG 106.327314 31.076118 98.435379
CG 108.853180 19.694020 117.195097
CG 113.323502 15.304504 104.101885
CG 117.362343 8.336159 94.739454
CG 111.152074 6.648196 96.215848
CG 107.900465 4.222731 102.436968
CG 97.256279 19.868022 104.403989
CG 98.731394 24.027072 107.891320
CG 95.928392 29.899267 118.301885
CG 92.812168 23.433818 122.691969
CG 94.913398 28.726081 123.715565
CG 100.454978 23.564816 107.468357
CG 91.922379 14.700669 2.605203
CG 78.121810 7.147537 39.131134
CG 51.506646 0.317706 56.838411
CG 36.763491 110.313423 53.754510
CG 27.293105 107.445714 59.971608
CG 35.168069 119.436091 73.483092
CG 38.787514 122.090015 83.020673
CG 27.520938 2.232095 101.318112
CG 26.448221 116.561734 93.793866
CG 14.688588 116.331923 100.026747
CG 7.645221 111.756618 108.304440
CG 17.413813 2.418771 99.054680
CG 10.098576 118.358970 105.664010
CG 6.547005 110.694936 103.629923
CG 10.457625 112.034801 106.998002
CG 9.627868 112.009730 102.418222
CG 14.253116 92.107743 1.984616
CG 3.932112 102.832877 18.581319
CG 120.424672 120.141779 2.071121
CG 103.342505 105.912169 12.547952
CG 110.884587 104.496485 26.936907
CG 106.427543 113.731637 29.826785
CG 90.620769 115.462777 33.833201
CG 108.883087 106.773594 23.278476
CG 116.688472 5.149801 21.314848
CG 110.852101 123.832719 32.105333
CG 106.055209 95.679498 46.226180
CG 83.193318 89.884742 42.586278
CG 76.564354 71.397267 41.509634
CG 50.495945 77.723559 55.753825
CG 69.344100 86.884163 74.153564
CG 75.136216 86.526637 83.138386
CG 65.657467 75.880647 89.296513
CG 63.150790 79.021641 85.377082
50
frame
CG 101.627867 19.682088 109.447908
CG 107.962870 35.624694 107.689268
CG 111.426333 32.837836 115.073975
CG 108.655354 20.659222 119.542777
CG 106.069757 14.703956 110.316222
CG 101.022782 9.717170 105.535481
CG 91.855938 8.213148 113.459719
CG 88.801049 2.455476 124.576380
CG 91.043418 16.562178 116.408562
CG 91.814368 16.593448 114.261749
CG 95.937884 17.651911 119.421405
CG 94.144807 19.105714 124.675636
CG 93.668182 25.847871 122.956735
CG 99.690710 25.980800 116.595594
CG 86.298753 23.652146 10.723893
CG 73.966129 12.694201 38.146217
CG 55.976596 3.077990 47.562569
CG 49.798769 111.978202 36.111524
CG 49.563309 109.945628 42.894146
CG 51.707016 0.040511 62.190243
CG 45.632083 121.016426 80.854188
CG 30.848676 120.651690 86.997022
CG 19.810006 111.654974 84.250814
CG 19.954820 115.154324 88.822305
CG 10.628476 113.054644 99.570771
CG 20.050977 11.969458 95.469691
CG 15.483148 119.914041 100.164601
CG 4.080292 114.641728 99.354855
CG 8.780283 108.845128 98.826444
CG 10.501360 2.282715 99.572115
CG 13.593880 112.279623 118.052943
CG 15.229794 124.638485 7.710753
CG 6.407096 14.170139 7.489854
CG 124.700214 122.065232 121.177820
CG 9.538578 98.090534 13.131121
CG 122.024387 103.568244 10.229902
CG 116.863721 111.599873 2.880623
CG 111.146069 99.547420 11.777388
CG 119.029914 111.804176 20.378014
CG 102.186708 117.052197 22.427559
CG 113.652926 97.118751 19.188215
CG 102.123982 96.374848 0.292196
CG 123.305656 108.804533 119.633026
CG 101.351616 116.441469 8.288813
CG 104.818344 104.845655 40.681004
CG 96.200918 96.418442 47.525295
CG 86.147162 77.469878 50.443406
CG 61.840636 81.553702 56.320592
CG 94.448532 77.339105 61.981063
CG 82.310191 84.159410 67.137432
50
frame
CG 108.349293 28.542617 115.416200
CG 103.790141 11.288314 119.129792
CG 99.224920 6.282131 122.094999
CG 100.926084 15.998021 112.921375
CG 96.597437 8.186034 6.401372
CG 87.706633 8.659235 0.477582
CG 84.909432 11.920750 0.675921
CG 76.643282 25.642286 121.927900
CG 75.492849 13.442968 14.080999
CG 77.577976 21.476049 19.660236
CG 86.054808 18.764557 9.931809
CG 90.466675 20.169426 1.730003
CG 87.742466 7.899518 12.640110
CG 67.625149 9.050501 44.891898
CG 58.627319 120.097055 45.092205
CG 44.969368 116.950260 46.208341
CG 48.136329 117.845543 47.376597
CG 47.161767 7.117316 64.253607
CG 51.679823 4.363099 69.595044
CG 43.185251 116.603151 70.943525
CG 41.698486 120.658612 66.365646
CG 34.989773 114.090167 75.475555
CG 22.637676 120.751672 95.479652
CG 17.850494 120.297462 82.804375
CG 16.467192 2.915634 85.590795
CG 6.091918 99.132278 92.339538
CG 11.611660 122.678477 86.317110
CG 17.103134 124.197413 100.284220
CG 15.803024 3.128758 111.183628
CG 14.344771 116.894322 6.928179
CG 4.927574 18.867468 121.925911
CG 124.931169 6.978747 120.544406
CG 5.391815 116.573896 121.666573
CG 12.965313 123.920254 6.140882
CG 120.431968 7.052199 2.314328
CG 14.713724 119.472318 123.395844
CG 10.114117 102.114287 7.777348
CG 2.971007 112.141240 0.154217
CG 2.994944 90.810890 111.001388
CG 121.823325 86.480735 114.750001
CG 106.800544 95.172205 115.711498
CG 112.073454 106.187983 5.704722
CG 92.353091 108.114019 13.815228
CG 2.758417 97.214837 13.152015
CG 120.546071 118.876247 123.738380
CG 0.348918 112.228319 10.178477
CG 116.045923 104.975420 25.066205
CG 124.372467 88.630557 29.405990
CG 87.231027 92.224821 27.700349
CG 99.462338 78.470970 30.857854
50
frame
CG 101.443689 121.987393 5.879817
CG 99.018173 7.684847 0.258574
CG 94.473527 6.623400 124.337547
CG 81.958726 120.419842 10.825820
CG 77.126397 10.802469 1.520825
CG 78.927908 25.525643 14.577217
CG 77.631842 21.817787 24.496269
CG 80.496406 17.482688 25.841539
CG 78.787614 23.685017 14.976130
CG 76.605997 18.532690 11.860689
CG 63.818739 10.336695 34.454063
CG 51.913272 2.689563 63.235323
CG 44.028173 120.614595 64.560110
CG 41.085459 104.564961 49.165501
CG 44.234771 110.216582 55.337284
CG 49.264787 124.285357 63.550411
CG 49.830783 1.086916 70.889081
CG 44.473916 118.828414 76.863841
CG 34.744111 0.863449 74.968212
CG 32.902368 1.576009 75.341186
CG 26.281342 122.116061 82.078315
CG 29.558049 124.802766 72.380295
CG 38.425559 1.873337 59.474953
CG 23.786213 111.579208 84.426471
CG 22.047051 113.220455 81.146846
CG 19.673625 1.997869 85.027071
CG 15.308854 121.108491 105.824784
CG 15.270723 116.371539 116.133022
CG 8.838620 17.764852 117.608569
CG 4.582791 16.797275 111.447561
CG 8.644040 121.025431 120.345934
CG 10.907594 120.748120 123.542808
CG 1.373564 9.556031 121.072541
CG 4.095329 2.678887 120.869595
CG 18.537418 121.768541 114.994855
CG 7.489887 1.326454 122.654154
CG 10.461857 119.624975 107.206045
CG 22.970481 97.062760 100.977467
CG 123.102104 96.624361 108.602913
CG 7.634251 99.158961 104.716235
CG 121.642256 103.469002 112.047746
CG 5.916532 91.617301 123.329134
CG 2.585268 96.898676 123.482424
CG 115.618433 110.688219 2.605588
CG 118.661408 95.054402 3.296047
CG 12.391022 97.585547 117.983330
CG 11.683698 123.406978 102.489033
CG 18.290775 117.947646 107.942834
CG 13.656927 100.780327 118.227393
CG 1.520011 102.272246 113.346427
50
frame
CG 83.465451 110.678813 10.016768
CG 80.037975 108.425162 20.099187
CG 77.175022 124.491215 17.397227
CG 78.264500 21.235707 19.552743
CG 76.928158 18.146628 25.806200
CG 73.548539 3.949614 29.569863
CG 73.689569 20.953671 18.475754
CG 75.069372 19.150602 29.861304
CG 66.650663 13.904547 46.845812
CG 50.531796 123.998655 71.622112
CG 37.998535 122.935576 70.318731
CG 28.155066 106.404845 57.745205
CG 22.424131 110.846562 72.555075
CG 35.362252 123.123819 84.214625
CG 35.604017 2.083415 87.091967
CG 39.893416 108.320408 81.741710
CG 30.807169 115.295482 83.522022
CG 32.116891 120.622774 73.112792
CG 28.360632 116.148447 81.050860
CG 28.514323 2.008567 79.187137
CG 31.965902 6.375160 68.912921
CG 24.667348 0.807334 80.223652
CG 19.179623 111.377820 79.380645
CG 36.609897 8.727768 66.984628
CG 33.929230 121.934294 86.436047
CG 33.173283 5.002297 107.513337
CG 21.303693 6.806163 108.815136
CG 5.978278 23.767616 98.541033
CG 8.967800 108.110914 109.565293
CG 11.741516 120.655038 110.184541
CG 7.438559 7.695210 113.515359
CG 7.760111 14.075683 111.586256
CG 21.943270 123.647582 116.161402
CG 10.201095 124.323359 108.077372
CG 10.607923 119.921367 107.811797
CG 13.210957 105.104069 91.651141
CG 10.818854 112.515120 94.742803
CG 123.245353 119.057619 105.081866
CG 20.884528 3.248837 106.180210
CG 16.804313 109.628565 113.879604
CG 29.872374 94.957537 116.676922
CG 6.489447 105.102127 98.680373
CG 25.609683 94.053788 101.593052
CG 15.827754 88.407313 99.285304
CG 23.521405 104.229702 102.586686
CG 2.593802 117.355992 98.703555
CG 20.322131 85.994873 99.155464
CG 9.696864 110.681197 78.849661
CG 51.000773 9.366727 62.288413
CG 58.759096 15.895455 70.368258
50
frame
CG 78.500418 117.570649 19.678359
CG 80.389365 4.374664 13.478484
CG 80.523304 2.127077 19.386237
CG 76.639728 118.516222 23.443126
CG 75.488114 7.414346 20.077182
CG 76.067173 23.066835 23.090005
CG 71.187239 10.723217 40.481307
CG 60.649062 4.628592 48.362014
CG 55.035318 5.171388 47.175827
CG 51.611161 3.985260 42.387196
CG 45.985239 122.095044 57.894543
CG 42.610370 2.583153 79.541501
CG 40.485742 122.961503 76.032738
CG 30.675685 109.954942 71.197126
CG 30.344343 109.628451 76.063513
CG 30.133376 0.142894 81.242310
CG 34.725714 120.248542 79.880997
CG 31.994302 117.069686 83.853639
CG 31.925745 0.402883 75.437853
CG 28.925884 120.679541 75.283943
CG 23.862625 116.859636 82.742749
CG 31.229451 0.569437 72.651191
CG 35.997415 8.633403 77.568973
CG 24.741819 120.715905 96.549003
CG 22.768508 4.069004 92.492928
CG 19.312435 7.717768 83.764217
CG 20.798883 123.504947 95.713693
CG 23.847295 115.151993 110.808542
CG 14.425462 16.656164 107.673446
CG 7.878470 11.866362 107.803678
CG 14.115007 120.805398 110.026714
CG 14.349732 118.914881 111.479821
CG 5.098604 3.491603 106.801413
CG 13.528317 121.121647 105.282081
CG 14.196989 117.024490 101.870826
CG 7.139679 0.127719 109.655748
CG 11.631451 120.273745 107.104704
CG 21.775359 110.548492 102.125714
CG 11.889478 101.237447 106.139833
CG 12.017661 111.387999 102.220928
CG 12.602227 113.536379 100.472266
CG 26.174546 97.537804 110.120710
CG 16.401333 101.911336 106.183143
CG 14.652947 109.700189 101.504906
CG 13.681654 94.586932 96.982980
CG 24.927953 94.211066 90.335256
CG 27.889382 2.124570 80.134416
CG 41.833025 124.603698 84.641480
CG 30.674633 114.371924 86.671420
CG 30.382713 119.944212 71.709153
50
frame
CG 77.021557 21.568764 21.816977
CG 75.534836 3.873953 25.247886
CG 76.265356 124.767362 21.401575
CG 77.921980 6.747847 18.710125
CG 73.608113 120.232290 35.028152
CG 63.239303 114.492846 44.220084
CG 55.980444 119.394798 46.179711
CG 53.177762 4.992679 39.330466
CG 50.491793 120.918302 49.276093
CG 52.472263 5.652488 57.460062
CG 57.380748 8.457511 53.923459
CG 55.821943 5.409733 52.117616
CG 51.925632 122.408216 61.969964
CG 40.989996 3.355613 74.293916
CG 36.915584 120.764368 69.056446
CG 26.685832 115.412128 71.254614
CG 28.633128 120.864316 72.016577
CG 29.364375 1.735536 78.801573
CG 30.481985 118.229118 82.900699
CG 32.925605 117.549337 80.478076
CG 36.729739 1.481345 80.880325
CG 28.938899 118.504786 94.223644
CG 23.912629 3.287237 97.327271
CG 17.971198 4.789341 87.799322
CG 19.802689 5.904121 88.113979
CG 16.400371 110.375500 99.956016
CG 16.853343 8.616826 91.700012
CG 19.975697 3.705841 90.629183
CG 25.836185 3.067684 97.553831
CG 27.404352 117.298172 108.876825
CG 12.966043 9.541327 101.630861
CG 11.131245 121.604789 99.928238
CG 10.700460 112.283236 98.771921
CG 8.999348 120.714089 109.249766
CG 7.049537 4.750614 110.152681
CG 21.722333 122.588606 113.150408
CG 17.257970 109.270891 113.151515
CG 16.185447 113.702498 108.807198
CG 10.116948 108.383925 99.952720
CG 24.362179 98.991214 98.214074
CG 5.704636 105.509128 98.271557
CG 12.448529 118.198715 100.592412
CG 7.481561 115.099490 97.079168
CG 30.593452 103.977073 98.627107
CG 27.575204 0.233950 85.056366
CG 47.362890 123.309091 85.483242
CG 31.760282 115.933823 86.290497
CG 36.047487 105.390169 84.668695
CG 12.244110 111.070685 88.756935
CG 11.349337 97.139668 102.839987
50
frame
CG 73.033396 9.705236 27.865195
CG 74.019968 23.007082 27.794044
CG 69.281309 15.501577 36.963812
CG 61.570138 122.102006 49.787359
CG 56.023429 117.023542 43.849954
CG 55.323504 111.242299 38.903450
CG 53.842280 110.946444 39.238040
CG 55.669411 109.465695 55.945763
CG 59.137521 4.600324 50.731002
CG 58.223391 124.953633 50.425178
CG 53.908508 124.007887 54.351040
CG 51.874179 1.650566 50.875641
CG 49.539335 11.114014 48.948202
CG 55.967679 6.943642 48.057388
CG 46.249779 11.567920 62.262688
CG 45.223258 3.761724 67.665876
CG 31.050663 120.645434 74.292796
CG 29.999173 114.051819 67.546392
CG 32.190530 122.258027 78.252849
CG 30.271465 3.347357 96.787685
CG 27.235451 123.027093 98.306791
CG 22.457129 4.683424 94.135050
CG 16.905528 114.974979 90.964097
CG 23.893527 118.072947 96.312133
CG 16.502047 119.679393 99.576222
CG 21.252621 16.812088 90.107366
CG 14.735961 8.632097 90.777382
CG 105.838849 53.546657 7.568290
CG 16.784193 113.818553 89.079048
CG 57.073268 71.106142 40.055250
CG 35.242183 98.418825 95.251309
CG 20.024872 123.828294 102.358260
CG 18.897144 8.831880 110.208449
CG 15.971331 122.597178 103.777875
CG 20.225512 105.236050 111.963386
CG 10.288443 106.020058 105.694570
CG 13.121063 120.734742 103.276545
CG 14.235011 109.140551 107.274508
CG 22.640900 115.776619 107.167979
CG 2.554260 121.663584 105.770339
CG 21.904192 110.579527 99.048095
CG 15.386555 107.736063 82.839218
CG 34.117569 123.648628 81.700872
CG 28.625198 13.785242 78.509343
CG 40.669430 1.785402 91.458869
CG 21.225580 121.193835 91.973708
CG 25.557482 101.184746 96.623204
CG 1.708831 102.868356 103.397128
CG 23.470720 93.211713 103.099262
CG 17.778572 101.060143 99.400924
50
frame
CG 65.303008 16.078723 44.843699
CG 57.851989 0.369823 52.015656
CG 52.979964 0.710051 52.455241
CG 51.156553 5.169797 44.616499
CG 51.368736 4.258321 44.713522
CG 53.911870 123.954181 55.885637
CG 59.995666 122.027404 54.895517
CG 60.443411 115.618542 44.110270
CG 56.802574 105.769465 47.421534
CG 54.768489 111.113617 48.106924
CG 53.069284 1.294312 44.203875
CG 53.955051 6.294540 50.195779
CG 52.753241 6.981961 52.057408
CG 48.289313 7.221615 49.614411
CG 51.058079 4.649942 49.275663
CG 52.440463 9.668287 50.309459
CG 54.987123 10.662860 63.631407
CG 44.264475 8.181191 88.918408
CG 28.187739 1.687430 89.094655
CG 20.265410 121.084339 78.667292
CG 13.371907 118.227539 89.499825
CG 22.010103 118.308512 95.448117
CG 25.772276 0.629998 100.192168
CG 17.896572 8.219539 97.472727
CG 14.759968 12.435743 90.740203
CG 118.044418 47.503690 88.802500
CG 1.356619 70.190558 89.788606
CG 31.617744 61.901517 83.147202
CG 22.578617 39.807787 85.857358
CG 4.285638 75.156123 93.798338
CG 34.090968 86.793637 96.922317
CG 58.003252 76.191748 92.433008
CG 42.311153 87.731890 99.828310
CG 28.331652 106.567376 105.052194
CG 19.633288 122.791740 96.539093
CG 15.106497 115.771598 101.007178
CG 17.755662 104.886218 105.477008
CG 8.140530 120.457161 100.347110
CG 10.753872 119.807769 101.826086
CG 24.314867 118.312274 92.207528
CG 33.699906 11.653146 86.581636
CG 36.426085 15.834889 90.816843
CG 37.772121 124.197460 88.694849
CG 19.019340 116.594854 84.943395
CG 13.475169 105.384053 89.357068
CG 0.887755 106.819526 99.421267
CG 13.143378 114.803052 106.497020
CG 23.266756 109.449695 105.564764
CG 18.016131 99.640875 106.921468
CG 19.027652 97.684668 103.001782
50
frame
CG 36.887552 114.495184 76.546143
CG 42.613345 0.461856 62.376098
CG 47.102413 2.500345 52.408928
CG 51.236511 3.425374 57.605005
CG 56.691277 4.830142 64.376984
CG 57.403544 9.283304 48.877136
CG 53.270279 124.358483 51.320563
CG 52.876646 0.917895 50.593351
CG 54.337380 121.525950 46.770492
CG 55.191943 123.185425 43.138844
CG 56.409276 112.487126 47.835742
CG 51.622898 117.494306 45.181727
CG 53.222783 119.696664 45.118054
CG 52.689313 6.061909 55.094443
CG 57.505699 7.943847 54.749194
CG 48.427368 9.047305 70.769086
CG 45.354666 11.156417 67.474683
CG 41.504429 15.167274 58.520813
CG 39.234613 6.907835 72.548875
CG 33.976064 124.546080 90.487316
CG 31.402701 5.239391 85.304587
CG 14.805263 2.100834 84.435897
CG 7.212937 21.179981 87.436699
CG 122.429066 47.314590 86.635838
CG 5.904000 82.459704 89.425786
CG 32.461792 46.965655 92.060881
CG 25.919439 46.709184 85.251713
CG 16.632063 58.610387 53.139434
CG 18.528111 53.105570 97.219025
CG 35.241629 60.713548 12.303351
CG 26.086713 31.840818 88.018152
CG 7.654107 60.530169 97.172852
CG 35.552449 70.420411 83.633285
CG 52.865516 72.113624 86.817874
CG 38.828679 85.408070 95.999773
CG 32.349695 115.947384 98.054963
CG 15.524943 1.977939 91.943460
CG 30.085422 121.202462 89.730770
CG 29.563843 2.666200 80.674118
CG 42.205117 15.570080 86.761692
CG 23.174993 4.832551 92.701235
CG 28.622214 122.640606 94.307522
CG 3.719725 121.551843 96.308561
CG 16.909609 104.701702 113.006144
CG 4.087906 115.410590 104.049884
CG 29.265905 106.014191 99.291637
CG 5.572880 102.926728 96.748596
CG 16.738243 101.490639 100.567434
CG 10.720951 120.140158 103.628529
CG 21.098429 109.273308 113.796658
50
frame
CG 25.738591 114.038460 68.801721
CG 30.920975 116.446364 81.088112
CG 40.032726 120.249944 87.071749
CG 48.717605 0.979577 70.762092
CG 48.456311 0.717059 53.404741
CG 49.433580 124.215789 59.035693
CG 51.473997 9.685121 52.054161
CG 51.727483 10.754834 50.928886
CG 52.060346 13.445397 50.154119
CG 51.729501 0.938489 50.707538
CG 51.625811 122.130429 45.817421
CG 56.866184 117.565998 48.266925
CG 56.622625 119.529981 55.565584
CG 56.002810 115.991906 59.562905
CG 42.592542 2.641225 70.813464
CG 45.506043 8.503697 59.411158
CG 38.545764 5.248607 64.792897
CG 39.885529 123.361322 72.639518
CG 44.961412 14.248136 64.656285
CG 38.581731 27.681926 61.029234
CG 27.682087 33.345537 72.357996
CG 16.169194 64.260562 79.444488
CG 11.481868 77.195810 73.408179
CG 31.949553 53.045159 79.718328
CG 23.855318 35.272738 83.666826
CG 14.921733 67.455589 89.564183
CG 27.073914 59.760073 101.893717
CG 29.769320 39.870774 15.651750
CG 32.368144 54.471297 90.912158
CG 21.014835 26.774228 50.487542
CG 17.712725 56.655139 91.185922
CG 35.967523 46.960689 81.784187
CG 18.536609 38.865649 91.751545
CG 7.190899 67.853259 87.420997
CG 37.708636 75.873902 79.810012
CG 56.270600 74.967098 72.999205
CG 64.036040 106.381256 74.008125
CG 54.098014 7.316429 80.336236
CG 41.574551 11.674580 88.096976
CG 17.221306 121.020358 90.486025
CG 16.035601 112.470431 93.714054
CG 3.307297 107.035211 105.004383
CG 12.134217 112.195377 113.110080
CG 17.537357 123.267863 100.627524
CG 20.356919 110.372192 108.625398
CG 9.435784 109.200247 110.473610
CG 22.301917 113.475212 104.616463
CG 11.195445 115.284083 105.742080
CG 18.136180 104.371117 105.638076
CG 5.197185 1.484916 99.119561
50
frame
CG 35.661542 123.297552 90.344258
CG 32.845131 114.950577 77.245149
CG 27.946964 113.184173 68.403797
CG 27.263257 112.421565 79.109519
CG 35.210819 123.433509 79.940837
CG 41.676787 5.144706 68.377038
CG 46.484770 7.845641 59.315697
CG 48.808925 4.261682 56.319607
CG 49.210671 4.304323 53.462447
CG 52.182074 9.619714 54.662225
CG 53.905976 16.134531 59.399662
CG 51.802491 5.399246 66.035129
CG 44.990349 2.061009 68.438283
CG 42.865572 124.677498 59.366306
CG 45.138216 113.703925 57.650278
CG 42.126764 108.842925 65.623554
CG 45.465363 3.330920 65.859066
CG 41.406502 26.222928 61.316163
CG 24.351307 34.067029 66.115489
CG 22.768791 61.378709 62.247659
CG 26.873583 88.138226 54.124630
CG 52.435782 72.189959 54.306819
CG 52.767541 46.669205 72.529079
CG 29.085145 76.848196 80.292263
CG 34.854287 63.271884 85.809577
CG 31.487092 39.016664 87.160177
CG 24.360463 40.577151 85.513006
CG 24.236231 49.607802 86.486398
CG 23.421027 41.086690 94.962187
CG 27.048925 51.394794 85.940932
CG 31.359279 48.530466 91.325250
CG 16.910115 40.433317 88.647514
CG 24.125603 67.469037 81.016376
CG 45.890270 47.846399 71.296376
CG 37.880613 62.680823 68.667686
CG 30.738145 87.849382 72.036717
CG 53.709172 78.896166 76.739834
CG 43.337635 73.016273 76.029624
CG 42.298464 84.248012 87.423997
CG 31.994109 102.220861 96.948988
CG 102.486243 35.735334 111.506626
CG 22.436247 0.225620 97.969640
CG 27.925430 105.826797 99.108347
CG 121.710730 103.050019 109.359270
CG 68.166909 71.685230 104.508758
CG 4.343545 0.625321 108.792348
CG 18.789888 117.919719 118.456152
CG 10.439104 2.080896 108.357010
CG 8.108021 2.275600 100.113004
CG 12.390469 105.853031 98.559078
50
frame
CG 34.934133 112.556331 77.003403
CG 32.337518 122.463669 85.641828
CG 30.909522 124.309768 85.276742
CG 27.728931 123.690974 72.002858
CG 25.378787 117.898423 74.571564
CG 27.482314 119.303361 76.745648
CG 32.244591 115.605820 82.808557
CG 40.652129 4.066383 72.647444
CG 48.776312 8.205416 70.366027
CG 47.644620 10.961433 71.431699
CG 42.833510 4.573229 75.645686
CG 37.329114 19.118705 66.577120
CG 42.385061 9.126701 59.663692
CG 39.315534 0.341139 72.386709
CG 44.884987 5.368700 64.103034
CG 39.833879 22.391417 60.737259
CG 30.359505 22.874190 57.763522
CG 22.979289 46.033637 56.880396
CG 34.871963 76.950996 53.137153
CG 50.714749 66.628973 57.749397
CG 55.367398 44.740653 66.369963
CG 32.802438 62.859091 68.201303
CG 44.144999 83.336330 63.776572
CG 56.973731 46.591438 63.306170
CG 47.737421 58.693024 71.751789
CG 41.887632 58.424264 76.815436
CG 33.210542 47.693037 76.311717
CG 27.414518 46.771155 36.437359
CG 22.885548 41.945743 79.113427
CG 24.243240 61.720843 4.396142
CG 26.509872 45.660269 78.981399
CG 39.875433 68.142816 77.062632
CG 52.918905 57.272270 67.497028
CG 38.148721 71.863405 75.226436
CG 37.908909 67.263874 78.842653
CG 39.142229 42.784094 78.102827
CG 2.970876 44.684817 81.284502
CG 17.172076 56.510560 93.650487
CG 35.638538 46.655862 93.261966
CG 70.800420 37.739613 90.931986
CG 30.927356 61.261634 45.069570
CG 8.509354 54.921849 106.087583
CG 95.862856 7.659322 102.870259
CG 113.723540 84.188201 102.415184
CG 18.052191 96.497721 24.695684
CG 9.056229 66.883530 105.583716
CG 104.599975 96.993701 96.752226
CG 7.082785 107.271812 103.834746
CG 10.527916 117.200998 110.795381
CG 14.030237 4.849846 110.653949
50
frame
CG 27.049827 124.239910 79.987762
CG 30.413272 118.823140 72.935913
CG 31.911539 120.221955 80.064231
CG 32.810510 1.327491 87.951961
CG 29.595837 121.751664 82.441936
CG 27.236006 117.728349 81.224169
CG 27.781718 124.953621 81.388515
CG 26.384076 120.716097 95.651882
CG 23.993972 121.477239 100.975001
CG 26.840054 4.675274 87.360929
CG 33.730462 8.939580 69.922249
CG 39.189038 123.385921 75.510757
CG 37.438004 13.551854 76.634248
CG 38.417972 40.033733 60.984063
CG 23.408390 51.211917 65.547053
CG 23.727660 60.362013 59.910526
CG 33.946632 82.170676 54.109188
CG 52.441976 61.232755 56.897950
CG 58.938917 29.924220 59.949240
CG 37.985556 44.563589 62.958547
CG 44.102956 69.259775 62.618360
CG 61.108077 47.146623 66.913779
CG 46.761490 42.108560 65.142013
CG 43.559979 59.654695 65.363055
CG 44.734351 55.874925 53.382612
CG 48.543298 58.380675 54.482305
CG 48.039289 65.638922 67.772948
CG 41.987642 61.804641 115.075921
CG 40.744290 68.050216 63.876036
CG 40.641736 46.261124 21.236448
CG 44.347127 71.625198 61.213348
CG 48.305407 72.675500 67.549685
CG 32.238235 56.772260 83.319666
CG 31.468267 55.611948 82.626852
CG 22.173689 37.700172 82.977086
CG 15.785799 42.787409 95.252536
CG 39.958671 35.435947 97.410621
CG 56.954408 9.658070 88.675746
CG 45.673562 18.720131 85.703397
CG 25.848549 8.399671 96.968521
CG 45.424660 7.242395 8.780780
CG 65.982733 122.001862 89.029565
CG 102.295840 44.403259 98.626012
CG 61.212920 90.749134 99.354032
CG 78.737246 95.025168 53.693066
CG 52.855395 92.254463 96.432801
CG 8.102481 83.875275 102.569650
CG 123.203092 77.026712 107.311601
CG 118.987180 94.837085 107.372976
CG 0.702550 114.278226 115.082291
50
frame
CG 27.771676 1.587926 75.511626
CG 26.515764 2.416837 83.838848
CG 26.773076 122.931128 76.796937
CG 29.396978 112.101943 81.087442
CG 34.268304 1.178836 91.239046
CG 31.938819 5.865334 102.462103
CG 21.419940 124.593306 102.495934
CG 14.035530 121.598859 93.128412
CG 13.813305 124.498995 80.957430
CG 17.596712 111.975168 96.273000
CG 19.158833 3.396999 103.486112
CG 23.561828 31.486243 82.231369
CG 18.570050 52.021271 72.387002
CG 18.852578 58.988483 69.895778
CG 33.430718 83.967161 61.914837
CG 49.839280 78.678996 60.488890
CG 52.694492 51.467624 69.140020
CG 41.158084 58.716400 65.323791
CG 36.706997 75.453200 65.699299
CG 64.715458 46.237532 64.168283
CG 51.079545 23.002187 60.484218
CG 43.182787 45.447186 55.366189
CG 50.951334 43.185609 56.018032
CG 47.910539 54.241122 55.082824
CG 48.598686 53.318803 64.717509
CG 44.184288 62.841410 60.571967
CG 51.171005 69.148205 41.727938
CG 63.241347 69.730609 37.348400
CG 68.781486 80.350634 52.738336
CG 64.625658 87.037207 51.318279
CG 48.951294 68.640315 69.861293
CG 24.842942 32.588900 72.724125
CG 19.657535 56.667915 74.341987
CG 25.102367 32.863932 87.554822
CG 36.822242 31.963156 101.529326
CG 54.188576 21.637868 90.514248
CG 61.331674 5.671361 87.872683
CG 23.676239 5.684217 96.662084
CG 32.341402 110.999189 99.091099
CG 35.535914 113.091628 84.531813
CG 47.155159 118.458507 99.105145
CG 44.199305 22.928492 90.776585
CG 24.338088 120.394785 82.777340
CG 54.220915 21.732031 84.751782
CG 66.728288 3.218622 93.200675
CG 57.378102 108.440234 101.150647
CG 112.512017 92.509563 107.818412
CG 7.222287 103.450918 105.533752
CG 2.543550 77.850991 107.825355
CG 104.029342 40.293199 101.696803
50
frame
CG 26.796235 0.083475 81.563471
CG 28.753708 120.579977 76.240267
CG 30.481113 123.959211 86.195208
CG 29.338071 7.082967 91.645313
CG 23.961207 121.557826 90.005030
CG 21.310983 117.426560 86.128448
CG 24.303297 124.654097 87.378592
CG 24.646427 124.085121 96.885517
CG 21.031128 124.583570 104.199424
CG 18.249116 18.813854 86.914890
CG 17.748764 25.659043 74.513214
CG 17.717174 25.538990 84.207087
CG 27.526260 39.810102 82.167028
CG 36.751027 55.754514 72.200364
CG 35.078989 48.060306 71.563875
CG 30.038487 57.118637 69.319043
CG 35.697623 79.143929 61.888452
CG 53.807531 62.478349 63.850693
CG 56.586085 36.145299 63.380198
CG 36.694962 52.201740 60.771055
CG 46.644960 64.298809 60.428113
CG 55.844165 44.935360 61.090115
CG 47.558250 45.191046 60.332328
CG 47.218227 49.823632 59.553457
CG 49.486754 58.738718 48.127262
CG 57.084457 61.334560 46.106415
CG 58.310289 66.153758 58.641705
CG 53.301198 74.200463 59.599144
CG 48.501790 66.547299 52.518478
CG 43.171298 52.367014 60.466018
CG 42.559658 61.308329 60.617402
CG 47.587491 69.634889 70.835305
CG 44.526223 40.138188 84.034045
CG 41.019949 36.066692 82.457160
CG 38.909626 27.296773 78.712451
CG 27.310027 18.535312 93.108866
CG 26.990656 12.724115 98.882901
CG 52.395835 1.468798 89.459849
CG 47.878604 6.344122 89.461443
CG 38.120403 8.571955 98.431995
CG 30.073144 1.000038 86.286978
CG 41.410710 117.126716 87.746057
CG 62.415773 8.940613 95.991729
CG 51.809066 116.359136 96.798700
CG 66.846063 112.133253 95.533799
CG 100.447872 119.175237 95.755750
CG 87.548344 105.936751 98.353472
CG 83.101593 72.283040 102.518774
CG 104.113498 69.965124 102.910742
CG 5.018222 93.213726 107.442204
50
frame
CG 31.215257 118.614027 86.172097
CG 29.362244 3.439428 92.908687
CG 24.257384 0.965457 91.458040
CG 20.673750 122.430632 83.142713
CG 20.207488 124.401047 82.358961
CG 22.574077 1.407969 85.306731
CG 23.173013 122.588002 89.994553
CG 25.466106 15.432769 81.186356
CG 28.387829 29.355604 77.758932
CG 26.065840 35.656043 84.396761
CG 29.112812 37.349800 84.801692
CG 33.291044 42.706692 74.622203
CG 33.950901 24.158319 74.925958
CG 28.899954 19.365289 84.599214
CG 30.419511 34.060674 81.754773
CG 39.606594 38.697390 74.768204
CG 39.514940 29.325704 68.374150
CG 27.082139 48.490602 63.430274
CG 39.762718 70.723108 57.626033
CG 49.659900 61.317247 61.001416
CG 50.286603 55.370787 63.076321
CG 39.814744 63.420609 63.011820
CG 48.922615 74.790820 54.535720
CG 61.048061 56.637314 50.565975
CG 59.377512 56.981153 55.468564
CG 55.211693 60.143922 60.264323
CG 45.738150 55.974079 59.142620
CG 37.192602 43.104967 68.121945
CG 31.768309 44.942592 71.760463
CG 36.077924 55.796268 75.029775
CG 45.622771 40.158391 69.969380
CG 57.609464 45.717253 69.969110
CG 61.140949 40.729329 64.604451
CG 51.297272 48.610648 74.647587
CG 35.823896 24.908688 82.452350
CG 38.201843 18.801570 79.403647
CG 31.649695 24.957034 79.355868
CG 33.923550 25.912754 93.490887
CG 30.443300 26.180603 88.969352
CG 55.383569 8.796687 87.888258
CG 63.699334 15.821444 91.571888
CG 53.950065 110.970005 103.045617
CG 68.175561 107.812352 98.827163
CG 90.008624 94.164876 99.748364
CG 86.496217 106.489590 100.743204
CG 70.577582 80.684363 98.032495
CG 64.988548 88.866679 91.998921
CG 94.192836 112.514731 95.984324
CG 87.728665 123.030926 98.786294
CG 79.686882 103.774798 102.165395
50
frame
CG 26.490136 5.363669 102.598316
CG 22.752064 118.384392 93.104652
CG 21.201513 120.557331 81.818748
CG 21.803364 122.412859 87.826330
CG 24.878563 5.167889 88.671191
CG 24.557711 18.622078 80.480873
CG 25.012940 35.203232 70.819900
CG 24.772121 34.425930 73.466707
CG 30.062092 36.398696 70.663699
CG 41.582802 33.543715 69.574902
CG 43.041888 30.922152 77.978520
CG 38.638014 23.751246 85.145531
CG 31.392209 34.912088 84.962103
CG 36.108644 26.226908 74.644053
CG 37.933814 9.453621 72.431502
CG 27.874717 9.765676 76.901584
CG 31.503788 28.208187 78.738658
CG 41.109194 36.592442 71.193863
CG 28.231900 45.151403 70.794454
CG 34.691458 61.780500 63.796775
CG 38.356787 76.066778 53.565637
CG 57.892425 77.201429 48.956210
CG 60.294605 59.731309 59.072477
CG 45.297832 79.516704 64.151355
CG 45.674922 66.259381 67.580453
CG 38.202246 41.442052 71.338233
CG 34.377183 34.564486 72.416579
CG 38.222895 41.379573 71.385929
CG 46.466528 34.720449 79.209447
CG 51.915116 28.047323 73.446893
CG 50.442257 35.584323 80.021773
CG 37.354430 21.317007 74.867218
CG 35.352970 35.266485 73.010948
CG 50.298027 18.988980 65.994663
CG 59.382243 45.643452 66.082351
CG 53.116446 54.718555 72.556549
CG 50.171669 36.078470 76.282863
CG 35.295979 31.748826 72.652778
CG 55.820492 21.420123 86.443001
CG 47.212857 15.221831 94.126198
CG 67.689215 116.182563 105.224899
CG 105.487592 2.471556 95.429278
CG 85.298182 98.177122 98.618903
CG 69.669093 94.229807 101.259211
CG 69.031478 73.160938 96.519939
CG 77.189495 101.155299 98.721870
CG 96.272576 117.674529 104.063243
CG 58.542932 116.692883 96.241071
CG 46.741462 118.578159 92.232353
CG 48.013470 16.466627 86.135143
50
frame
CG 12.304786 118.553081 89.017273
CG 19.519465 3.687805 93.883430
CG 26.145640 7.143674 102.225063
CG 27.479501 19.816344 87.299141
CG 25.568594 30.373252 72.294074
CG 25.844904 33.613146 74.168479
CG 31.559650 37.860348 72.728605
CG 40.237391 38.409271 67.722827
CG 41.081379 31.805991 73.389090
CG 34.805557 25.970559 75.162355
CG 34.076046 27.636104 69.119084
CG 41.340572 22.162816 70.603263
CG 48.294404 11.485139 73.270931
CG 38.080339 16.669259 78.556302
CG 30.947478 30.018069 80.905379
CG 38.436285 28.966811 72.369812
CG 29.978217 25.381496 71.831289
CG 29.676000 25.954616 79.141157
CG 40.382269 32.392554 72.022145
CG 41.190643 49.230865 61.302153
CG 44.219093 52.286678 66.793110
CG 36.658665 65.292600 68.824141
CG 32.423184 76.808936 64.617302
CG 44.681254 57.484340 63.865238
CG 23.004305 61.739047 58.451566
CG 84.673248 65.533691 17.158752
CG 35.322157 47.229589 52.301938
CG 124.571289 20.294495 54.695068
CG 57.274125 4.706759 83.023881
CG 45.945437 7.575750 84.592937
CG 36.452618 16.523974 76.362358
CG 46.165856 20.816969 73.984017
CG 49.848221 23.394575 78.965008
CG 39.626865 42.217208 74.973886
CG 45.844734 38.191951 67.064462
CG 53.348870 28.176788 62.428035
CG 72.391739 44.931926 71.247715
CG 84.321075 34.187493 78.828897
CG 78.280881 9.167702 86.040352
CG 91.262969 11.859171 86.150329
CG 79.065323 120.067118 85.566587
CG 50.342146 105.413818 95.774938
CG 74.214851 104.009779 100.376175
CG 89.772120 120.958324 94.338269
CG 88.646006 2.143937 102.193252
CG 67.995242 124.425503 99.721808
CG 35.763139 108.282834 93.209618
CG 41.276388 0.563080 91.977287
CG 51.533713 11.565816 89.640945
CG 31.847904 3.570851 88.040083
50
frame
CG 19.900741 9.159335 91.033977
CG 17.627724 19.333837 85.820530
CG 16.752212 31.606318 75.048254
CG 23.350958 38.529898 80.504304
CG 32.600571 38.301161 87.403565
CG 42.697683 38.532501 75.186453
CG 42.146127 24.860231 75.500687
CG 35.826661 24.138894 78.409968
CG 35.262006 27.110384 70.656425
CG 40.228544 27.893705 68.151649
CG 44.866117 12.084671 71.151122
CG 35.813604 19.555489 66.388103
CG 31.284852 24.475992 65.473043
CG 41.980703 25.193837 69.545423
CG 44.340367 25.295194 70.839059
CG 36.050073 34.910720 80.415581
CG 43.530088 35.009402 74.458504
CG 40.031578 41.106387 60.923153
CG 41.921255 37.771937 67.902072
CG 35.733118 25.012642 86.066807
CG 31.769529 33.103603 81.858588
CG 23.927378 30.709152 76.204668
CG 16.182898 45.416461 67.398997
CG 7.082733 54.925791 60.168181
CG 24.357936 50.082197 52.969273
CG 113.942413 33.806763 86.245972
CG 57.044600 31.952984 47.621926
CG 106.335449 33.344055 45.458069
CG 27.974652 34.034982 75.992704
CG 44.148965 17.840700 77.830754
CG 57.065541 121.930351 82.163147
CG 48.813886 25.370952 85.103078
CG 45.993299 23.939057 68.873182
CG 56.088171 25.769043 72.857093
CG 59.349049 18.475661 83.655558
CG 74.595100 24.684804 84.956890
CG 75.076487 4.395434 76.041534
CG 100.830448 4.506113 78.006212
CG 98.219119 23.168973 69.610086
CG 84.112537 117.345445 78.993228
CG 80.860228 5.784182 81.906597
CG 86.361881 6.078414 85.100354
CG 73.429330 29.603558 85.136679
CG 49.978830 7.448711 97.696405
CG 39.613748 19.514971 92.331211
CG 47.383027 12.188624 88.362696
CG 48.268507 27.607533 88.098729
CG 44.506407 8.877614 90.663107
CG 20.414443 118.804768 90.392223
CG 48.051686 120.959015 95.643436
50
frame
CG 22.949023 59.954337 71.899920
CG 24.227474 45.643847 74.821448
CG 27.816003 40.088141 77.552481
CG 31.789969 33.858240 75.764757
CG 34.083908 28.169329 74.410244
CG 32.096486 23.295056 88.461688
CG 35.874703 31.312183 84.237058
CG 42.483062 24.328024 74.425547
CG 44.302975 10.068349 74.485782
CG 38.316648 12.610145 70.514448
CG 31.420814 30.542937 65.378084
CG 40.426294 27.201709 68.923208
CG 42.461148 29.741081 70.330898
CG 33.992574 35.621686 64.908121
CG 41.037808 33.284013 62.088447
CG 48.710501 32.231096 55.739672
CG 49.115399 40.376079 67.196460
CG 47.247699 32.879358 87.789394
CG 29.927482 31.487910 86.607856
CG 24.703100 30.823771 71.454338
CG 11.619596 24.245640 70.927418
CG 10.479821 21.797851 72.691574
CG 17.651364 1.468895 69.688763
CG 1.677303 7.035178 57.317167
CG 93.118862 11.024452 55.682808
CG 46.672119 24.657410 52.092957
CG 14.666959 33.176538 49.956973
CG 21.757751 32.949646 47.409790
CG 60.137136 27.381308 69.490088
CG 36.282583 44.900036 69.755275
CG 34.957229 55.546432 71.227129
CG 53.885319 10.938875 71.515318
CG 69.104539 3.321113 91.783740
CG 79.654990 120.745029 92.475067
CG 85.895259 124.005001 79.475061
CG 92.957963 118.733810 85.020873
CG 93.625859 122.756325 87.282364
CG 64.567677 116.833281 78.544200
CG 78.957600 110.915866 79.475353
CG 90.945104 19.738440 72.768443
CG 91.907656 38.366841 74.119572
CG 81.176201 39.690037 75.876545
CG 47.430119 26.645822 78.406018
CG 44.594630 40.881679 73.199253
CG 36.445223 35.077125 74.127004
CG 23.793418 30.604629 86.520219
CG 34.302060 18.403875 90.926346
CG 41.155708 12.493992 90.914453
CG 57.282569 11.835009 95.700754
CG 29.038923 1.865840 91.856327
50
frame
CG 32.779483 73.463747 61.590899
CG 37.554434 76.000879 62.640984
CG 39.520106 53.788298 72.148408
CG 34.186371 33.302677 79.853799
CG 30.318254 30.177786 78.509687
CG 32.425353 23.345945 70.369912
CG 35.281654 11.427288 73.777513
CG 33.852777 14.062616 81.180186
CG 32.544006 34.611029 77.219320
CG 40.144904 28.382060 75.751030
CG 44.226616 23.335521 75.024270
CG 36.455150 31.847307 68.398707
CG 40.380612 37.605874 60.900672
CG 50.583161 33.398676 59.391102
CG 44.893950 43.520004 64.727127
CG 42.603096 36.826494 74.446172
CG 29.709370 24.112099 74.802205
CG 25.905084 25.304497 64.310326
CG 24.524539 24.585001 68.184417
CG 17.410663 25.680956 74.957599
CG 17.302461 5.174780 70.853026
CG 0.629034 0.687092 54.961449
CG 84.671268 1.400397 56.015700
CG 78.358435 112.261952 67.436344
CG 70.711248 115.953708 64.990538
CG 45.224426 3.944458 28.834656
CG 25.247559 8.550430 85.493347
CG 21.120636 31.482605 3.304016
CG 47.254612 51.000664 78.150529
CG 70.358243 28.265512 70.425200
CG 72.909115 18.443368 75.720937
CG 68.553515 28.293033 82.438552
CG 76.418388 20.763775 78.115559
CG 86.972317 115.790989 81.287562
CG 98.185202 103.505852 96.646377
CG 73.782596 93.228645 83.670145
CG 79.822093 107.896398 80.823829
CG 94.954167 8.743822 83.941308
CG 79.385148 21.862284 87.499654
CG 61.054895 31.549511 79.872029
CG 46.196111 11.386280 73.901296
CG 38.171932 43.913753 63.624043
CG 62.350237 49.770198 62.435071
CG 54.163725 51.916190 65.709985
CG 45.127863 31.250193 78.936551
CG 46.820732 36.149416 74.281914
CG 36.110487 20.347137 80.328704
CG 20.422374 26.259345 89.235174
CG 31.974577 25.777398 89.352089
CG 54.173222 31.206981 91.743908
50
frame
CG 53.945681 66.634145 64.764983
CG 42.718451 55.874600 67.835485
CG 34.783782 64.244221 61.321505
CG 38.362887 66.408648 57.958968
CG 40.902453 38.359143 69.167659
CG 36.299658 28.328649 72.643536
CG 27.971235 33.625203 71.874173
CG 29.586713 32.916398 69.864210
CG 35.377759 20.233803 75.319562
CG 32.938051 35.982714 77.872481
CG 39.695792 40.530769 72.384223
CG 51.430865 35.458776 66.996656
CG 47.445275 33.175781 70.668291
CG 39.621358 37.444861 77.864991
CG 33.808210 23.235872 74.311007
CG 21.578163 26.426979 68.633277
CG 23.215648 29.904643 63.240739
CG 13.010145 23.933293 62.926330
CG 12.833202 3.157977 56.023404
CG 124.888931 113.142782 49.535929
CG 95.574580 5.078290 51.638831
CG 78.580478 117.909032 71.494590
CG 81.877790 118.769373 68.774190
CG 71.982023 3.617628 68.385392
CG 83.674353 3.462441 89.034714
CG 52.428467 119.363831 17.082642
CG 38.275844 9.448722 89.558577
CG 14.426605 123.289246 52.536499
CG 70.095138 116.121447 89.563885
CG 79.207717 14.817176 99.999002
CG 91.215494 11.432218 87.195101
CG 104.472819 5.933123 80.882306
CG 95.288917 115.648381 78.846890
CG 69.593705 8.541608 77.609631
CG 60.361769 3.903074 71.849416
CG 94.186352 15.794093 85.382872
CG 80.467180 6.413867 92.242638
CG 65.184264 4.011448 86.705189
CG 49.339102 17.411061 71.917102
CG 43.190823 16.375210 77.073771
CG 46.211115 49.147806 73.614204
CG 45.602501 26.046534 74.460577
CG 35.560354 26.611400 72.314894
CG 43.909904 23.809116 71.849219
CG 59.426310 46.132268 63.843527
CG 50.952202 35.838122 72.254116
CG 44.575621 51.569297 75.627181
CG 63.561395 48.953992 73.411535
CG 32.036728 44.138852 77.387435
CG 22.054408 47.948226 84.467967
50
frame
CG 43.961233 44.397266 68.142233
CG 53.479231 57.319046 59.830498
CG 55.707441 50.418474 62.212917
CG 41.784381 51.104249 64.956979
CG 16.270445 93.617066 49.670223
CG 3.581920 66.702225 95.446767
CG 23.603799 58.380465 84.794753
CG 35.045925 50.745360 74.333986
CG 33.945810 46.962320 66.129841
CG 42.310844 34.618262 61.376183
CG 38.370420 32.729809 70.640376
CG 32.837443 38.451918 86.781312
CG 32.512324 29.874564 86.418590
CG 22.700701 21.690037 74.538668
CG 20.820094 24.999116 70.871793
CG 16.882711 18.813963 63.615107
CG 8.775330 3.329650 57.026938
CG 123.043544 114.064855 52.745510
CG 89.220053 6.415026 50.128625
CG 73.432883 1.557536 57.815589
CG 77.072717 109.419256 60.729546
CG 79.904207 123.963017 60.623362
CG 90.805060 4.464959 86.932925
CG 97.366230 1.980823 103.633993
CG 99.715565 7.106872 92.694367
CG 71.427795 4.990967 87.665833
CG 1.408477 106.009685 98.298253
CG 84.141998 103.437134 102.642456
CG 92.370474 100.302081 107.184480
CG 80.388855 91.011622 96.776005
CG 87.499490 97.973799 97.144862
CG 75.859989 109.152875 92.401840
CG 76.678408 8.071952 85.268173
CG 105.569005 18.557349 83.189003
CG 88.516614 30.240806 78.873111
CG 48.162875 36.621909 76.278134
CG 37.987604 41.273381 64.792964
CG 36.079400 30.215324 72.834897
CG 48.911971 20.995149 83.461156
CG 51.721578 16.408825 76.327271
CG 42.299713 11.560389 75.460574
CG 48.094224 13.504395 82.318657
CG 45.254757 29.494900 79.129530
CG 43.796582 26.466091 76.762706
CG 33.828726 32.518861 73.631752
CG 54.303693 48.770697 69.086242
CG 65.336583 54.669142 60.405765
CG 55.294775 21.847635 67.455879
CG 79.801135 6.293082 17.615078
CG 60.845315 18.042093 56.114083
50
frame
CG 53.987462 44.487855 55.920564
CG 40.030565 41.437241 65.074703
CG 23.447575 69.646676 57.365562
CG 19.258060 80.880540 44.941052
CG 36.885360 63.695080 57.590083
CG 20.895012 30.370899 68.637886
CG 21.549080 75.576163 73.796914
CG 15.575073 64.101367 79.754264
CG 27.954697 68.367989 80.678868
CG 29.096397 55.179108 85.087622
CG 26.488620 38.313540 80.992142
CG 15.341674 19.276873 67.513956
CG 7.061885 24.231569 68.274857
CG 12.811184 19.847517 73.021772
CG 4.603220 7.066807 66.264631
CG 119.893163 112.920998 60.097503
CG 87.780957 122.049776 59.455942
CG 71.946837 3.437274 58.016731
CG 78.205105 107.759330 65.396405
CG 83.091938 124.063969 67.078832
CG 86.726109 11.849330 84.610104
CG 98.069763 6.317816 93.825650
CG 94.004865 124.151762 82.257595
CG 114.375193 122.555793 77.152383
CG 3.672131 105.870237 96.119174
CG 104.698608 104.735901 64.269836
CG 14.611665 102.841420 106.783049
CG 105.437805 97.303894 10.998352
CG 14.584477 90.831607 98.931068
CG 119.753060 80.559588 98.150154
CG 78.146785 95.365897 101.872200
CG 81.696283 112.193381 99.446182
CG 82.753446 8.463817 98.045898
CG 45.241437 13.795052 88.566357
CG 52.621670 37.929468 83.167154
CG 52.226704 32.432959 67.377214
CG 54.353436 38.977758 74.205751
CG 43.053801 48.816047 66.696092
CG 32.091478 35.277079 66.875276
CG 37.789966 30.142889 78.992144
CG 51.805078 1.842726 88.795824
CG 43.945856 23.706823 75.648128
CG 48.936733 13.461190 78.527285
CG 52.597139 42.389661 77.141236
CG 58.440148 31.551002 77.404644
CG 48.815430 12.405885 69.006410
CG 60.331023 105.762136 73.374614
CG 66.430185 31.135398 64.965735
CG 106.436764 48.211509 13.415895
CG 119.181630 12.967428 6.626229
50
frame
CG 30.472608 56.029633 61.006301
CG 36.736300 65.489975 50.361205
CG 43.403834 49.744506 56.575424
CG 35.166214 40.131666 69.490898
CG 17.373864 64.145662 64.783297
CG 23.623295 84.148388 63.004437
CG 27.504448 53.767245 69.315247
CG 28.923674 52.025563 74.556868
CG 20.781977 49.601792 77.643849
CG 17.013523 43.806766 72.976536
CG 16.562723 43.572592 73.218686
CG 19.772474 40.422685 79.898919
CG 16.928489 20.681475 73.549796
CG 0.910911 6.668434 63.434831
CG 112.117173 8.160333 64.486360
CG 101.901018 13.609310 66.251701
CG 106.539212 122.044519 65.177182
CG 103.290741 115.679899 66.779183
CG 88.690094 9.106415 70.093837
CG 85.363333 1.817861 77.730298
CG 89.622762 116.035289 72.715971
CG 95.348820 122.158251 71.877886
CG 109.742717 122.172255 87.050285
CG 103.700229 114.898396 87.668588
CG 107.368990 116.174480 85.385174
CG 124.314828 108.497309 115.210349
CG 115.016898 98.812949 94.084175
CG 1.048420 94.750661 76.581400
CG 98.273331 98.317253 108.928979
CG 94.501279 109.266685 112.917127
CG 111.321301 111.193857 99.305245
CG 83.880947 113.923292 94.308307
CG 62.194077 124.394536 89.902645
CG 74.781190 14.197849 86.102854
CG 63.024066 17.069433 82.604962
CG 48.639920 32.775704 82.683705
CG 41.387792 35.682593 72.287212
CG 45.657932 26.440810 75.818395
CG 52.873087 26.403265 80.930181
CG 45.766189 27.559024 72.699134
CG 38.034843 36.698712 69.686190
CG 48.166695 25.590042 80.679210
CG 51.772621 26.963669 79.761797
CG 49.804500 8.189049 75.261872
CG 51.706233 5.644272 72.354733
CG 66.415325 28.657992 69.485169
CG 78.672217 48.305628 45.512910
CG 90.078800 9.383546 32.153186
CG 83.480534 122.576611 47.600560
CG 84.060082 38.167893 41.314869
50
frame
CG 25.688004 70.999170 51.377379
CG 25.228588 53.863389 66.125559
CG 24.816466 52.669418 69.451478
CG 37.441953 68.117729 66.649619
CG 39.058824 43.529309 70.689228
CG 39.020614 49.885995 74.738882
CG 20.786726 46.484968 67.197870
CG 22.626973 57.180208 57.876384
CG 17.842454 31.669809 59.843344
CG 17.311187 36.599630 67.954626
CG 10.788856 31.848499 70.702577
CG 1.798999 28.901849 67.173723
CG 118.541845 29.292386 69.529869
CG 110.997228 32.831055 74.371864
CG 115.979977 15.111111 72.174431
CG 112.695329 8.458848 71.218396
CG 112.908218 20.008244 76.995085
CG 115.822083 16.633377 83.996511
CG 120.760686 0.648987 75.575813
CG 117.222914 115.627642 70.109292
CG 110.294858 119.698481 72.135686
CG 97.938757 108.721558 75.122486
CG 98.313874 107.031629 76.550875
CG 106.309771 109.796673 103.823328
CG 99.834382 111.460153 94.194389
CG 111.367952 106.899189 90.245239
CG 77.987668 113.447130 89.151422
CG 99.378022 121.274779 97.845098
CG 90.394433 122.872794 86.797031
CG 92.062953 2.996110 75.025849
CG 76.610000 4.787698 95.336244
CG 89.278569 10.595727 96.580817
CG 95.624671 123.329492 85.497625
CG 81.254844 2.714725 87.219619
CG 58.203568 0.232509 82.980845
CG 67.339703 3.371011 90.765578
CG 61.945434 2.939517 92.659060
CG 53.625632 14.183017 88.361357
CG 47.527526 31.557770 74.949141
CG 55.521922 27.634792 77.968975
CG 55.725156 41.210768 74.028716
CG 49.722797 20.465649 69.362112
CG 43.692606 23.895582 64.848961
CG 62.524365 18.734368 67.941244
CG 75.432743 39.646456 48.142334
CG 88.228771 10.877641 35.713513
CG 78.121383 15.697343 46.431690
CG 77.471970 37.443383 53.408604
CG 57.554650 39.210217 69.456594
CG 52.105629 118.468239 76.911565
50
frame
CG 21.654777 50.008997 76.103642
CG 24.169687 69.664471 66.900908
CG 25.604550 72.208392 66.271839
CG 22.116789 51.186469 70.307368
CG 33.297557 50.399393 70.492227
CG 27.357357 25.468135 60.637533
CG 36.362456 35.769170 61.820558
CG 21.596410 19.683005 68.872763
CG 15.270864 41.625054 60.681220
CG 4.617233 33.636625 52.975395
CG 120.253598 23.565766 55.865313
CG 110.281903 24.965043 62.433959
CG 107.547168 29.739203 69.171279
CG 118.448614 27.030281 74.831004
CG 116.951187 42.806420 82.615318
CG 3.072491 36.552365 90.459946
CG 2.887957 16.083340 84.130064
CG 2.474471 9.469911 72.061298
CG 7.230627 2.986702 80.694620
CG 5.082966 3.069267 81.380426
CG 1.984973 112.826392 83.856904
CG 4.677118 108.639017 96.888247
CG 104.339190 107.272047 89.107532
CG 95.453859 103.548639 65.940566
CG 84.713370 103.632572 87.473547
CG 59.281043 0.022702 78.021106
CG 97.638126 10.560919 90.968774
CG 57.894903 14.113573 87.672980
CG 73.350065 21.943549 73.972155
CG 82.376206 17.268829 87.288290
CG 81.867344 14.862741 68.592703
CG 83.446811 8.783442 68.275865
CG 75.003252 12.730113 91.832214
CG 75.868969 118.934401 95.421352
CG 102.036698 115.897316 100.379585
CG 80.449350 107.447053 88.931789
CG 70.671977 122.867825 88.557480
CG 74.195307 8.928763 87.561269
CG 67.774956 6.839563 90.247431
CG 55.724530 18.399371 81.083303
CG 57.907847 1.758817 73.430206
CG 67.988668 35.389025 60.322252
CG 86.393083 37.934780 46.197542
CG 82.376654 41.018056 25.738330
CG 75.910643 19.450681 41.857881
CG 61.791395 38.658730 57.722851
CG 59.317074 20.538004 70.997528
CG 40.583585 1.319545 86.836451
CG 53.892095 6.062054 71.170376
CG 52.544777 42.989496 78.154739
50
frame
CG 23.867530 70.291761 80.930868
CG 20.823139 47.693467 80.877497
CG 26.230506 39.100560 75.734094
CG 20.954134 36.898289 62.862586
CG 11.777404 48.269391 55.410917
CG 13.779705 42.580010 64.965830
CG 16.107120 28.034925 64.283310
CG 14.925363 20.107572 54.188789
CG 8.737515 16.052094 59.724644
CG 118.473170 13.778662 64.487490
CG 113.209709 37.667025 59.860844
CG 121.738404 34.656367 62.578514
CG 124.796845 32.268870 69.119189
CG 122.029177 33.680351 77.030814
CG 1.779309 24.574043 80.746208
CG 2.878860 26.657342 74.689821
CG 12.121774 28.166895 83.205761
CG 17.444085 17.451697 93.120694
CG 7.414840 9.506527 89.400677
CG 10.929472 122.768424 99.017774
CG 4.173078 119.919795 98.098226
CG 116.997782 122.355997 72.398229
CG 117.834371 114.059326 86.840847
CG 87.238241 124.136222 86.560683
CG 87.605889 12.419515 70.246420
CG 72.079441 8.430169 76.455188
CG 51.728361 11.055189 66.244118
CG 69.682590 20.859090 61.912396
CG 74.859848 21.362120 82.938863
CG 52.914774 22.737551 72.008044
CG 73.732602 22.781956 78.227956
CG 67.607248 6.877425 89.118741
CG 83.513910 123.191397 77.126554
CG 91.623596 124.612203 76.301033
CG 75.043402 3.778041 88.404239
CG 89.337813 7.723862 96.590782
CG 104.132430 119.684870 92.420930
CG 83.312882 107.131691 85.204925
CG 82.980491 106.451432 82.030620
CG 91.125686 0.166161 70.299819
CG 96.045296 21.976956 57.813522
CG 93.093653 20.089047 43.567249
CG 82.468929 11.397130 47.756784
CG 69.146769 36.017531 62.327398
CG 61.679974 31.470717 68.351177
CG 43.099546 19.408053 77.229267
CG 42.567860 21.509975 71.147992
CG 49.832080 40.510817 70.006222
CG 47.127197 28.683260 86.335133
CG 46.128729 10.554255 77.008247
50
frame
CG 23.853678 32.636397 78.541344
CG 22.640334 40.862737 76.485870
CG 7.561900 41.560880 69.762919
CG 12.329643 44.167957 74.445921
CG 10.376465 13.600506 72.601868
CG 6.717349 31.930367 56.329370
CG 108.352307 28.294650 52.681566
CG 110.787711 40.055548 63.145989
CG 112.948154 21.689634 62.509528
CG 9.018208 30.910147 63.637407
CG 15.208047 16.765203 75.485594
CG 6.200604 24.687986 77.771144
CG 7.591007 31.776017 71.714523
CG 9.338409 30.607452 64.654230
CG 16.091601 19.969711 66.726642
CG 13.264973 12.884658 81.850531
CG 7.009766 14.967621 86.606282
CG 5.827035 17.886070 97.302902
CG 12.593883 17.216221 101.727103
CG 124.154009 13.216185 84.461197
CG 118.482311 15.118939 83.847890
CG 100.600593 11.834771 98.144105
CG 98.175672 29.464542 73.994460
CG 105.344646 27.739623 81.149660
CG 80.545142 19.861516 72.401755
CG 99.215294 21.435385 66.144649
CG 72.092799 22.646704 62.862273
CG 69.214162 14.033710 70.123898
CG 45.143170 10.885168 61.116764
CG 71.240567 9.872593 70.185815
CG 61.020928 0.821045 89.891357
CG 71.612480 16.018106 76.513875
CG 72.358430 14.494948 79.060590
CG 75.704465 20.053397 88.611419
CG 89.273022 3.997951 68.982692
CG 93.965744 121.475845 71.004761
CG 81.871110 115.782921 79.166710
CG 113.248447 0.929155 78.772008
CG 2.662574 13.267186 55.783123
CG 120.985103 111.171606 50.973198
CG 106.012358 116.274102 56.319568
CG 89.467222 119.034859 77.658049
CG 67.286685 21.334974 83.502765
CG 57.194007 114.679292 92.915412
CG 46.683496 18.407351 80.784525
CG 62.697269 32.641720 70.855278
CG 50.884336 42.932456 81.350387
CG 48.677640 23.838197 72.328031
CG 37.192287 30.051071 69.832945
CG 43.015489 25.770946 80.488033
50
frame
CG 7.156035 13.950521 65.538271
CG 8.751076 22.461492 68.718731
CG 14.118363 17.071875 76.619236
CG 0.516041 19.977932 69.262009
CG 111.263436 40.573116 66.571139
CG 102.074806 24.294661 73.861938
CG 118.866518 24.434003 73.755573
CG 119.260776 25.567189 65.552248
CG 122.938395 44.905787 69.914552
CG 120.721821 37.514467 76.911926
CG 5.739319 25.654951 71.685800
CG 23.794072 21.297832 66.638863
CG 26.910138 6.211055 73.157435
CG 25.464622 3.268841 81.830698
CG 10.400813 21.884059 82.373586
CG 13.288143 22.232469 83.284167
CG 13.280614 9.147768 86.380339
CG 122.744814 9.965788 72.922611
CG 110.104134 19.067660 77.123012
CG 102.115951 36.556638 94.627774
CG 100.379283 46.393695 83.868006
CG 113.578686 50.945011 80.256999
CG 89.179194 40.058664 82.966561
CG 97.055354 34.922833 66.793902
CG 102.125317 38.563208 73.873841
CG 79.308929 33.059562 71.080347
CG 97.573525 17.922703 74.401546
CG 80.795433 11.160875 71.206543
CG 82.343825 5.055956 72.789337
CG 71.180361 2.922429 78.440227
CG 59.399506 11.904186 53.949171
CG 71.642951 11.951066 72.012538
CG 69.317810 14.809731 82.083213
CG 73.879491 3.658734 64.525830
CG 84.089432 8.165939 76.552486
CG 92.805084 10.587642 64.406441
CG 122.660611 22.580980 36.269828
CG 121.399203 6.829285 32.972935
CG 103.757955 115.334068 60.374044
CG 104.455728 9.564750 84.023040
CG 96.481995 121.229981 90.165155
CG 81.488366 104.057171 93.398980
CG 78.319959 102.043553 93.279133
CG 78.024019 13.000394 79.407824
CG 69.239197 13.732836 94.235825
CG 52.165805 6.316072 92.689273
CG 51.963847 13.148296 75.397551
CG 47.285065 25.934674 85.033345
CG 53.361072 32.424769 75.227957
CG 38.965645 47.238858 64.796140
50
frame
CG 121.440161 9.597715 65.260004
CG 111.832677 116.745160 61.845536
CG 105.976621 11.127444 59.254935
CG 103.174956 8.917749 69.422795
CG 118.350512 17.394415 77.686172
CG 122.127718 24.855096 78.847822
CG 120.347690 46.757524 83.136789
CG 119.759239 29.950335 88.642907
CG 7.899969 20.582689 82.181965
CG 11.225502 15.616786 68.258732
CG 10.895641 34.698372 68.903803
CG 9.805638 15.111424 81.677934
CG 11.231773 18.252047 82.629591
CG 19.704984 16.557760 84.118516
CG 26.576432 118.808558 91.059876
CG 6.928829 1.128464 75.293015
CG 112.269729 29.408013 69.372345
CG 111.382121 39.657392 82.850656
CG 102.236828 41.968226 71.565094
CG 108.492174 44.022445 62.458751
CG 92.101199 44.769392 78.047178
CG 86.120052 54.555639 64.592796
CG 113.498113 54.542551 76.513031
CG 87.002900 54.789196 80.318487
CG 96.121277 37.349506 77.342207
CG 95.529050 23.533382 78.705794
CG 93.881567 23.207419 80.468462
CG 93.934129 22.036730 77.284598
CG 105.646867 20.094820 74.645132
CG 81.550817 17.597627 61.878391
CG 98.163477 14.439166 75.745974
CG 69.208986 121.127381 63.733356
CG 78.030634 124.015953 44.338863
CG 92.157971 9.834742 54.152302
CG 98.048945 25.633242 40.686314
CG 106.800832 19.809277 31.371161
CG 98.007817 3.658902 62.360422
CG 79.652354 14.949736 75.004239
CG 90.869429 12.399542 73.221411
CG 77.795076 116.801696 73.849303
CG 77.392616 111.984253 93.431396
CG 94.210078 23.292486 85.773001
CG 96.986626 124.292651 92.496304
CG 78.438690 114.138791 99.752069
CG 80.694344 100.725284 84.654966
CG 68.382354 4.690996 89.430169
CG 65.489960 4.011348 95.106912
CG 51.885077 26.776038 77.638159
CG 48.083830 32.061724 76.546164
CG 61.388268 28.278938 79.652124
50
frame
CG 83.843328 110.333555 56.616968
CG 93.519529 8.167750 64.883200
CG 97.847032 123.947986 68.883933
CG 114.039536 8.701874 71.225162
CG 112.216464 7.543262 75.908109
CG 124.042859 22.622595 83.152441
CG 2.549000 6.184230 82.668298
CG 14.245487 48.250616 74.506447
CG 27.573578 10.299631 27.793396
CG 10.578567 19.108693 89.665924
CG 28.717480 121.199153 100.523821
CG 93.532302 12.765173 13.521821
CG 10.011972 16.177306 91.855066
CG 118.318894 12.785915 78.505547
CG 108.517521 32.554731 64.860890
CG 116.203473 36.482082 83.746396
CG 119.855810 25.271243 79.621897
CG 111.021674 35.619205 62.077206
CG 105.121561 53.430363 69.815108
CG 91.573484 53.893759 61.809730
CG 112.817672 52.898809 52.913572
CG 95.369167 41.287639 74.289865
CG 81.028058 44.090705 65.616274
CG 101.640586 37.958565 77.808681
CG 93.685119 40.238692 82.649190
CG 108.276827 45.696433 85.792779
CG 98.228208 39.176119 75.116021
CG 106.151155 31.911142 73.991977
CG 90.280841 29.556006 74.518355
CG 113.505098 18.537194 70.240822
CG 104.257197 3.840246 59.339993
CG 120.461819 23.238651 41.896296
CG 122.105040 21.567449 41.318102
CG 102.111500 16.025041 28.055154
CG 92.541650 118.116341 34.154759
CG 76.284729 9.226337 72.533949
CG 59.134913 17.942103 72.657767
CG 72.440337 1.363578 77.023321
CG 64.858648 5.090028 88.885391
CG 76.306657 22.436432 82.449235
CG 90.162128 27.721102 66.688120
CG 75.254953 109.464558 84.512259
CG 73.081566 4.021280 84.411638
CG 90.793729 124.725710 90.012065
CG 82.601371 9.940830 96.479080
CG 85.954613 121.476303 83.718884
CG 74.187893 7.198915 81.583065
CG 84.974046 121.695487 89.759210
CG 75.861404 0.954419 96.411494
CG 61.046053 8.820789 91.739249
50
frame
CG 74.395414 3.455209 70.315411
CG 82.893865 118.466039 66.021203
CG 97.687159 119.776683 73.794969
CG 106.191503 7.953076 77.994156
CG 114.724538 6.071092 73.171477
CG 122.022293 12.947113 65.405334
CG 1.947025 25.292949 64.890463
CG 122.185321 106.683064 80.498163
CG 33.834393 101.838074 15.280894
CG 42.897935 110.813902 96.846863
CG 21.660199 12.285981 92.707361
CG 53.080531 30.130363 49.905948
CG 104.988310 21.817229 85.323616
CG 108.457502 38.479896 91.432506
CG 104.094555 45.151064 88.163434
CG 97.094794 47.214054 61.844408
CG 99.378751 58.471309 63.527526
CG 102.547226 49.838023 68.171949
CG 119.051535 31.847044 57.710460
CG 110.837491 36.133877 73.419379
CG 85.175599 44.708722 68.933990
CG 109.617570 42.994646 63.240045
CG 102.702398 34.090470 70.175499
CG 102.858826 35.219622 70.029812
CG 99.719257 45.878379 68.003769
CG 95.094370 44.675101 68.013518
CG 106.760366 45.378300 78.617159
CG 110.739781 41.635377 75.415460
CG 117.136726 25.064669 58.298774
CG 2.714891 33.648459 54.640020
CG 124.844158 46.123801 35.322842
CG 12.800182 27.946088 43.236615
CG 113.490269 8.437186 49.345009
CG 105.679375 12.339753 63.603788
CG 82.641579 22.126243 83.330930
CG 65.924074 121.057722 65.188459
CG 72.424290 119.640875 64.015809
CG 66.319207 20.115553 74.514070
CG 65.411859 25.548209 65.429057
CG 69.710394 2.397238 83.214310
CG 56.929473 4.963462 88.951281
CG 73.472692 19.928150 79.253972
CG 79.397848 19.149901 74.900949
CG 73.598922 10.700893 67.972957
CG 77.656490 20.777846 77.046303
CG 94.316929 4.759573 93.967473
CG 101.803550 121.314917 95.927370
CG 88.737932 110.591421 99.806554
CG 91.420526 105.591664 94.816116
CG 99.662662 95.085742 106.570491
50
frame
CG 99.804660 3.302529 83.269546
CG 90.697649 3.681960 85.284419
CG 90.072460 14.470577 71.900806
CG 91.483744 119.093141 60.895209
CG 109.307549 8.479359 64.534307
CG 103.904185 96.865544 77.007617
CG 100.342850 86.855374 90.005773
CG 80.598528 92.061881 89.781391
CG 71.674345 11.655958 84.457551
CG 33.702839 12.790932 80.937908
CG 50.923609 118.761345 79.363471
CG 16.175079 113.810857 64.861300
CG 84.176627 73.060965 112.411241
CG 82.897055 59.131930 78.507285
CG 95.175333 46.265060 78.432999
CG 98.468451 52.267279 82.144914
CG 98.466789 47.743285 67.766775
CG 100.518237 46.716327 69.198381
CG 79.164993 52.014973 72.286305
CG 111.660709 37.748295 62.183322
CG 123.050892 15.116632 77.601847
CG 104.250254 29.928727 70.142500
CG 114.517488 46.078652 68.757860
CG 99.946614 51.958669 56.360477
CG 114.601073 36.332223 63.213033
CG 111.085073 32.059919 61.002620
CG 116.072406 32.111382 48.650499
CG 118.420862 42.735491 43.557177
CG 19.071024 64.283651 45.928997
CG 124.621373 50.042985 40.586442
CG 9.072249 27.376983 61.544647
CG 95.018125 23.490517 74.679478
CG 94.242912 43.428696 78.452799
CG 94.206298 14.176841 84.477409
CG 96.215720 6.622984 69.352463
CG 102.452794 29.222126 68.971141
CG 86.581071 28.410771 78.557596
CG 66.823629 123.431137 65.238134
CG 69.496468 116.567814 72.597086
CG 56.678637 20.378182 64.583145
CG 63.603722 15.437521 72.212861
CG 63.737717 30.300630 69.499863
CG 64.102753 16.815875 79.415257
CG 77.354644 29.336523 86.921237
CG 97.334447 119.451588 76.830750
CG 77.564251 6.546081 80.211469
CG 90.657013 114.215378 95.598662
CG 111.460749 108.380017 102.720653
CG 122.375604 89.917993 110.233693
CG 119.900979 85.622466 100.077612
