50
frame
CG 48.223821 8.751008 24.019334
CG 43.832063 77.440374 30.373424
CG 63.496194 61.525247 61.645548
CG 63.471810 60.011567 62.511289
CG 62.490071 60.033973 63.937134
CG 83.231734 45.321185 97.214547
CG 61.683769 58.276146 57.578589
CG 63.288288 61.772064 62.478661
CG 77.123964 116.465876 100.796515
CG 61.369614 66.069284 67.195873
CG 62.279549 63.089326 63.613940
CG 63.955973 62.434075 63.091029
CG 58.445364 61.795669 68.569010
CG 63.249445 61.703213 63.337319
CG 55.578554 36.321349 97.266055
CG 58.844488 65.741110 63.842282
CG 62.967949 64.203654 64.416357
CG 63.885980 64.299835 64.770958
CG 64.271719 63.387582 64.598445
CG 80.528451 88.344365 27.585239
CG 64.463902 62.189672 64.757706
CG 63.503355 61.985273 64.868361
CG 63.973158 62.584706 65.500049
CG 63.631553 62.162152 66.349643
CG 117.632629 45.180384 4.076193
CG 62.655860 61.947519 65.609327
CG 9.558324 20.529884 103.432657
CG 64.244400 60.989260 66.550316
CG 63.456701 60.515962 66.113177
CG 62.592115 60.936008 65.769099
CG 62.592422 61.563770 66.639431
CG 63.279050 118.587700 90.087156
CG 63.401199 60.718476 65.233667
CG 62.639811 60.134467 65.491807
CG 62.082978 59.943672 66.292249
CG 61.781817 60.534897 65.530729
CG 61.570818 59.625311 65.199525
CG 56.299287 44.563337 74.205859
CG 82.339862 31.138527 51.737867
CG 62.293966 57.440975 64.917371
CG 37.630494 87.617821 93.524192
CG 61.332193 58.608975 64.969406
CG 67.915317 73.278846 56.432432
CG 63.507930 58.589327 64.967777
CG 80.520657 46.751934 11.520094
CG 62.752053 58.152329 63.145681
CG 90.801602 103.746505 33.594868
CG 62.560641 59.215119 63.883673
CG 19.094490 22.405245 5.550001
CG 61.394953 57.926077 63.427962
50
frame
CG 53.361760 63.942425 46.860763
CG 59.727697 99.018518 48.313635
CG 53.262938 93.647687 41.423427
CG 61.641758 67.465777 59.774883
CG 66.586397 58.542330 66.362637
CG 57.056010 69.595230 53.126587
CG 72.599144 78.681106 86.366545
CG 72.042527 72.435616 82.969772
CG 60.254812 43.140256 50.845252
CG 79.277192 69.103436 54.625906
CG 89.292495 32.508206 48.491193
CG 68.592118 64.125226 58.660046
CG 29.393901 64.854737 97.977950
CG 15.093944 73.051223 105.320537
CG 14.977783 86.350759 85.494830
CG 28.237183 61.389547 97.088639
CG 25.594880 104.223607 106.407544
CG 52.055919 72.874382 72.115696
CG 65.812141 70.877512 58.067828
CG 58.737371 55.003326 76.627160
CG 67.969352 69.057857 55.246579
CG 73.379679 70.227005 48.437208
CG 83.304145 57.614008 41.806281
CG 72.235708 55.874650 52.842014
CG 28.110743 55.686550 95.596154
CG 64.471785 49.849118 58.105144
CG 99.856006 71.096619 29.921168
CG 54.586352 51.147284 69.162155
CG 45.102944 51.441448 80.308728
CG 59.744857 77.902508 77.194317
CG 63.269911 74.239097 71.074253
CG 68.632588 39.430535 53.982116
CG 96.045927 58.930955 48.726981
CG 103.933080 62.600679 45.008872
CG 95.828845 48.526494 43.678383
CG 65.299461 51.535331 60.571048
CG 64.098841 47.660803 58.972606
CG 65.201678 59.674354 58.289579
CG 48.270006 72.862276 83.916031
CG 65.362315 53.840463 74.959612
CG 93.171273 42.111231 49.405078
CG 76.673973 65.938394 62.397729
CG 70.241512 59.931915 56.466682
CG 69.887254 65.050038 48.609608
CG 68.028199 82.553335 67.890935
CG 70.627589 64.913737 40.058087
CG 44.659548 27.522362 35.608933
CG 59.695739 58.990647 38.186757
CG 82.317935 82.550263 66.923562
CG 40.117120 41.960175 27.952394
50
frame
CG 67.628540 60.234129 69.570360
CG 67.234330 49.118733 71.683324
CG 60.245922 63.757018 57.283626
CG 54.182202 107.329249 41.068061
CG 58.135287 112.006053 55.662013
CG 56.689457 92.683327 54.190376
CG 62.363380 50.695461 48.966788
CG 71.657490 67.383507 40.391579
CG 86.843792 42.187802 43.060630
CG 71.712619 30.852828 71.395534
CG 44.523908 117.268789 66.009984
CG 26.992786 85.778578 99.080884
CG 50.005471 93.984124 63.412921
CG 4.875394 82.194449 109.002121
CG 13.267570 80.832466 104.638672
CG 117.327462 89.753790 114.602319
CG 6.360269 54.336989 100.903693
CG 17.193249 53.035980 111.417604
CG 26.541378 62.957921 102.707327
CG 48.591999 60.997229 83.113609
CG 75.633255 61.788377 48.996046
CG 65.359203 49.111891 64.005596
CG 37.365389 63.019725 81.475379
CG 64.680816 59.853973 51.671321
CG 75.852574 76.890692 54.763173
CG 64.471939 58.346115 58.717151
CG 53.815286 76.467919 79.568245
CG 69.247196 71.942107 60.884271
CG 95.928578 81.608413 38.742486
CG 66.743529 31.581874 52.989514
CG 80.971091 40.799705 56.181712
CG 103.256740 32.216276 36.195689
CG 86.175205 54.520657 51.256104
CG 102.370917 20.775086 28.063700
CG 88.636904 52.998709 48.038724
CG 110.773459 56.994519 36.012098
CG 82.723868 65.326286 56.830358
CG 74.778892 61.137206 64.121364
CG 80.000200 55.825004 50.884961
CG 85.167124 65.065209 53.961699
CG 73.101929 53.520669 54.110580
CG 88.971578 53.618817 51.883982
CG 88.533895 54.845092 58.724653
CG 79.977073 68.181466 46.806412
CG 43.571780 41.304714 66.140482
CG 58.466782 60.239318 39.320139
CG 63.312305 68.300861 85.948505
CG 53.049201 48.787199 22.225739
CG 58.060680 44.002812 43.727803
CG 85.352448 85.091921 47.810517
50
frame
CG 72.842499 55.063112 79.537393
CG 61.369449 69.790570 61.667112
CG 72.044276 82.030630 80.773194
CG 66.074696 61.660712 73.156575
CG 55.228687 59.926645 33.887873
CG 73.514799 83.622014 34.772511
CG 67.454470 92.365387 13.266651
CG 56.609165 36.161768 41.162522
CG 38.561966 57.333739 78.005738
CG 21.752420 47.635589 65.671431
CG 34.929091 99.088086 87.160607
CG 26.922018 93.897479 86.849232
CG 3.871727 87.816580 106.610118
CG 34.403431 102.609613 77.766477
CG 21.665527 86.216158 98.679785
CG 14.473251 73.166122 104.141007
CG 11.941023 46.282620 107.858322
CG 119.360849 50.619738 113.131018
CG 13.931246 40.993617 99.402656
CG 22.594546 54.271935 91.263153
CG 119.369317 47.796257 11.139735
CG 32.079775 63.073677 90.448074
CG 76.091484 67.749444 55.232664
CG 49.844383 68.419103 83.803983
CG 68.538279 65.826724 51.808212
CG 69.082437 98.647779 64.571048
CG 68.324042 64.381465 56.256658
CG 87.174518 57.203139 42.157350
CG 76.929759 40.244500 57.273918
CG 122.260908 52.425146 21.459299
CG 117.480863 38.824218 11.698162
CG 89.944613 43.240118 43.628834
CG 91.068066 10.520748 34.852626
CG 85.401550 53.781468 52.479800
CG 92.792770 51.801874 46.002367
CG 93.140105 41.716649 45.664482
CG 116.260367 54.796525 33.473216
CG 124.931453 58.298356 28.791811
CG 115.451989 50.633696 30.169889
CG 92.022467 53.805378 37.508627
CG 83.323693 76.834471 59.216490
CG 75.494743 58.046809 45.921898
CG 55.897071 47.905698 50.478407
CG 64.328504 34.141718 66.448737
CG 96.695641 52.828361 37.425790
CG 58.397393 45.133226 20.253227
CG 64.508381 63.637671 84.293285
CG 83.611822 83.119102 47.130007
CG 66.453603 74.583267 68.870942
CG 67.277206 46.582336 59.996909
50
frame
CG 62.482682 90.163551 67.527217
CG 76.758207 72.891311 85.385684
CG 64.862368 47.411975 49.812393
CG 78.582367 48.858426 47.493984
CG 87.401065 54.685518 56.386475
CG 55.438229 14.679733 50.208820
CG 34.101293 44.959902 79.132879
CG 22.510788 90.148883 65.551914
CG 11.611516 85.232122 45.848535
CG 18.814756 76.205239 71.814145
CG 124.776279 63.640857 95.796597
CG 22.558916 103.449589 62.891090
CG 21.705813 95.853404 100.718254
CG 20.531139 76.091099 100.791828
CG 10.774404 83.498667 97.064139
CG 37.011160 81.788768 80.600479
CG 22.895524 88.262808 96.777729
CG 27.326085 16.053584 85.446278
CG 110.409376 40.725842 2.807710
CG 98.991938 42.340686 10.506449
CG 23.999229 57.114284 86.325275
CG 10.591197 66.991823 113.235715
CG 9.850456 58.233964 119.936862
CG 51.132435 87.890932 82.313747
CG 53.482224 69.725362 81.740332
CG 74.655654 42.944436 55.385064
CG 105.019346 48.301547 25.530764
CG 104.735130 61.002857 35.513119
CG 106.739840 38.005053 18.910966
CG 93.296317 54.246963 40.167211
CG 86.244062 32.828242 46.747897
CG 107.188288 50.963124 25.332864
CG 117.502705 62.630030 22.419685
CG 94.032284 47.413509 44.529931
CG 113.928775 19.834024 26.820213
CG 105.928785 54.067798 38.594737
CG 116.707226 34.069910 24.260626
CG 109.550448 37.521635 21.871475
CG 112.548117 71.173167 39.319082
CG 114.479059 56.837436 30.083640
CG 101.428599 32.479455 17.204822
CG 69.844902 45.292838 52.197136
CG 90.428543 63.131421 39.344950
CG 66.977938 51.486216 31.036560
CG 60.646119 62.224520 84.440172
CG 101.831675 66.156040 62.977317
CG 95.603557 51.598964 40.367040
CG 67.380174 41.939431 40.960821
CG 81.924938 64.287571 71.710552
CG 61.500411 74.216521 76.378654
50
frame
CG 73.629696 61.645668 57.493652
CG 71.591602 63.777403 39.944459
CG 81.743776 61.689927 54.980614
CG 61.299473 37.929007 63.850875
CG 35.209335 25.324679 88.895108
CG 30.432837 72.340352 91.401122
CG 30.912538 45.081599 80.518400
CG 16.147249 48.550489 82.966774
CG 10.790725 53.396104 96.400573
CG 11.661394 93.554146 67.549921
CG 14.865034 55.111932 7.314126
CG 124.831794 87.521181 19.195728
CG 18.661491 96.046748 26.049114
CG 12.168796 87.473306 115.842738
CG 37.192378 69.104974 89.449460
CG 10.507168 67.477659 101.005109
CG 0.527503 100.240002 100.807331
CG 5.466110 12.839873 116.537485
CG 36.385562 9.307828 79.355319
CG 31.259222 30.569208 93.078696
CG 118.009807 51.374135 123.014070
CG 1.608351 54.622204 116.649798
CG 8.800792 69.120041 105.187714
CG 26.250908 27.068375 92.944721
CG 53.667324 44.578828 84.806318
CG 82.853786 48.037517 54.554589
CG 81.404705 50.022781 60.751082
CG 83.363958 27.907169 42.227911
CG 108.261161 61.911761 30.211042
CG 90.200175 40.600345 33.700783
CG 108.655750 76.395939 29.895743
CG 101.839981 48.711049 38.659130
CG 98.341687 48.733878 46.475493
CG 17.834171 37.725647 122.542713
CG 124.342168 64.903688 16.418983
CG 124.985382 28.536468 9.438285
CG 99.166866 46.238624 36.849852
CG 98.923343 52.781549 42.278028
CG 96.335153 9.364260 11.700337
CG 91.117043 31.374368 31.128475
CG 106.571301 57.263115 32.455684
CG 124.024227 53.639602 8.820621
CG 97.048014 42.311522 48.563081
CG 114.471798 82.555454 60.533545
CG 94.910757 55.712788 21.856370
CG 69.314221 50.816880 65.500549
CG 72.378475 61.700711 64.081018
CG 89.468095 63.381734 101.174205
CG 78.556517 46.214595 42.451753
CG 90.732740 58.963926 50.711330
50
frame
CG 86.464608 31.183387 26.488321
CG 60.447318 27.748481 46.881376
CG 36.446442 42.246450 87.941956
CG 24.318159 78.529053 92.652840
CG 24.717196 73.468697 73.165076
CG 24.960844 50.617741 95.356190
CG 12.116979 59.705870 99.300379
CG 24.223477 58.389989 96.884853
CG 31.072419 67.076856 87.982170
CG 4.561496 29.393689 107.011036
CG 21.381556 41.724551 75.308633
CG 17.566647 80.154609 74.185077
CG 10.916854 48.283095 111.412999
CG 8.366315 74.722508 20.640292
CG 114.846988 84.990842 38.016191
CG 120.143011 78.167634 16.154537
CG 41.654265 124.306904 91.881315
CG 19.778771 18.764685 92.804305
CG 6.031785 23.667442 109.657193
CG 25.966972 24.093590 93.901830
CG 33.075790 9.832805 94.106315
CG 43.989868 3.270742 73.121466
CG 49.602613 13.530957 76.842256
CG 32.385120 35.093576 93.842442
CG 38.841950 32.552407 73.424772
CG 29.055268 30.227977 94.238193
CG 51.057373 40.130332 80.624202
CG 76.473906 54.848846 60.073145
CG 65.417553 56.567028 75.636822
CG 108.103415 53.682817 39.068460
CG 113.088607 46.768341 27.449415
CG 123.236940 50.584122 14.466230
CG 4.390167 55.078347 3.889661
CG 108.308203 54.918677 31.149193
CG 100.158157 50.823619 36.323684
CG 116.059843 51.896034 17.883242
CG 114.671782 37.489648 1.094099
CG 105.970108 15.030322 8.462982
CG 96.877338 47.835702 39.501364
CG 108.470051 42.640487 19.725457
CG 98.797299 28.033713 38.441262
CG 118.449672 56.694163 50.089565
CG 123.708295 64.485977 14.878694
CG 111.473703 32.166089 30.616647
CG 115.870685 54.737019 55.677724
CG 102.303838 71.737788 60.404985
CG 85.552218 55.190188 59.011535
CG 86.559255 62.358194 35.600950
CG 89.179104 62.840825 69.796016
CG 101.612115 33.268221 60.152478
50
frame
CG 15.525494 14.753534 83.169994
CG 36.998770 45.161735 86.451088
CG 28.881883 46.379923 42.475188
CG 27.355329 34.318030 70.058251
CG 20.073588 72.055354 104.586577
CG 14.786954 69.446432 86.518078
CG 28.444345 81.267244 89.099196
CG 12.603446 51.277287 105.693583
CG 12.459430 34.635116 90.930966
CG 42.961084 64.239854 93.091694
CG 15.662383 92.828770 82.199677
CG 19.658246 45.525463 111.599627
CG 120.182440 87.471257 84.276019
CG 1.585411 64.480247 95.021755
CG 13.633003 71.583426 106.870950
CG 30.253483 94.481511 1.718752
CG 107.658333 121.018895 51.122868
CG 22.235984 34.251596 122.642446
CG 39.174313 26.716250 101.415684
CG 28.577167 116.722356 84.965571
CG 65.685955 114.627165 53.140028
CG 56.347026 4.452012 76.561238
CG 53.420875 103.510660 69.890299
CG 58.759626 3.463389 60.317827
CG 38.749021 11.560807 87.519253
CG 35.524250 39.795510 86.846397
CG 30.734567 39.568765 83.661303
CG 42.113745 53.147761 100.550367
CG 74.554002 25.673827 59.204561
CG 90.035303 61.428893 55.807796
CG 90.838767 37.104051 48.222526
CG 108.319864 58.949461 33.546943
CG 109.511641 49.573810 26.385596
CG 97.165343 60.484864 27.938944
CG 122.349259 27.093789 115.602120
CG 85.559357 44.471760 30.950967
CG 102.847782 45.079272 35.362952
CG 119.500396 56.564431 10.011365
CG 2.517791 49.841816 14.111385
CG 124.587245 42.646330 36.249430
CG 124.435913 57.290160 18.942577
CG 90.117872 21.128735 33.995675
CG 112.850692 33.227671 58.554171
CG 107.957317 54.739282 44.739286
CG 108.527043 59.451068 49.715954
CG 5.890475 39.776199 9.255447
CG 12.943538 58.154118 43.482504
CG 112.843056 38.447118 38.761053
CG 112.532657 40.938405 60.307297
CG 82.790871 70.745629 59.676601
50
frame
CG 107.895232 64.308966 107.495416
CG 100.030514 25.154388 92.280223
CG 5.264674 38.972039 115.696467
CG 23.422589 49.862874 79.332118
CG 28.975931 31.268078 54.710068
CG 21.512072 51.495199 83.144367
CG 6.938170 42.330821 92.859452
CG 25.038430 84.854493 71.576442
CG 14.574329 96.556532 95.874688
CG 6.371099 66.201201 92.285422
CG 14.438340 121.760735 123.066787
CG 17.285501 68.562070 95.891396
CG 42.421158 50.752805 99.744525
CG 31.988322 76.736488 89.326203
CG 8.089013 88.421314 90.278098
CG 6.583609 74.478187 89.568756
CG 35.981953 100.144882 83.436988
CG 29.710060 1.930369 5.101714
CG 39.724194 112.793227 113.115144
CG 65.930524 16.670556 100.884264
CG 40.437049 5.159075 97.173232
CG 47.874140 107.355471 66.797891
CG 51.934289 11.154144 68.178706
CG 51.770700 118.007116 77.150989
CG 55.248416 2.276602 72.988266
CG 71.766665 7.625790 61.619234
CG 68.906394 14.046125 73.348636
CG 54.346564 19.291143 61.149418
CG 55.947096 49.756548 70.391414
CG 37.690784 27.708548 86.023895
CG 71.150831 56.350964 63.510339
CG 60.611313 43.937918 66.535487
CG 72.081079 31.041675 48.687435
CG 103.298059 26.732187 16.573790
CG 90.224531 65.040386 47.086662
CG 122.717822 50.394541 7.803384
CG 123.703184 51.254867 8.618993
CG 109.971221 66.707722 57.093576
CG 121.246276 47.259603 21.231164
CG 108.384192 46.519904 18.133199
CG 124.662674 40.492692 42.117273
CG 9.456036 57.290281 30.015937
CG 99.437198 44.368929 38.503595
CG 118.202597 36.376277 31.716489
CG 7.644781 24.175790 19.110589
CG 117.041123 34.867200 54.802101
CG 123.271544 33.123777 28.408906
CG 12.391822 56.837233 54.076689
CG 121.350395 64.410653 20.024253
CG 8.777850 43.732655 38.679748
50
frame
CG 92.562937 44.243541 115.440063
CG 104.070327 75.498120 112.466783
CG 100.671539 47.927010 106.129568
CG 94.365684 37.309437 112.617709
CG 115.722766 30.988342 107.432102
CG 24.296439 46.139668 67.471852
CG 23.633221 62.962005 56.552851
CG 7.600674 57.424853 87.036744
CG 14.550455 71.104371 101.461751
CG 4.064504 105.318924 97.436794
CG 34.086459 39.354883 87.931735
CG 26.045998 76.412062 86.521453
CG 18.564378 77.056047 114.703940
CG 26.325605 74.894042 98.360667
CG 61.231930 61.323204 82.843629
CG 42.251633 89.034012 83.432333
CG 59.993180 38.199187 44.660059
CG 52.236657 97.710176 47.138056
CG 42.045255 120.745415 83.390331
CG 33.757992 110.569779 109.498647
CG 38.556578 4.922707 121.157357
CG 52.502872 20.636082 111.106187
CG 47.913428 10.888695 97.889381
CG 58.811679 4.538810 72.345918
CG 83.751819 5.491110 49.662330
CG 66.823270 105.599343 61.168166
CG 75.199655 4.267784 51.581506
CG 77.935653 123.524471 51.926989
CG 50.503599 20.397674 79.509543
CG 48.845391 21.574006 58.389044
CG 23.248325 23.175492 78.059432
CG 41.560288 9.727472 65.682405
CG 58.956412 60.333817 71.962857
CG 70.115878 49.871974 70.268399
CG 88.620578 41.903328 49.922434
CG 113.687934 54.985957 52.914036
CG 106.383835 65.931879 43.370013
CG 119.203636 30.187548 124.357241
CG 109.328473 53.922602 49.018963
CG 1.434020 69.550690 49.686767
CG 98.703774 45.173629 31.615489
CG 0.377045 50.935307 26.331333
CG 31.324576 40.065030 124.272587
CG 13.838913 29.998182 31.720799
CG 113.961496 30.759378 38.771223
CG 1.837035 46.579223 45.907871
CG 118.298611 37.651031 28.270342
CG 4.327108 36.449943 22.216557
CG 28.322983 33.551372 29.214218
CG 46.269837 49.741419 7.393376
50
frame
CG 98.115522 62.267024 111.297324
CG 88.891662 42.572829 6.649561
CG 81.621496 50.820545 104.870849
CG 106.323587 64.273243 100.899508
CG 96.649266 86.388485 105.277482
CG 76.597844 48.822136 122.263758
CG 117.064454 59.425208 121.862268
CG 11.374209 69.576833 92.076493
CG 28.609092 76.174491 50.934505
CG 44.551632 57.826396 81.522101
CG 6.866288 48.131820 85.250093
CG 23.655520 93.978801 108.643646
CG 43.846557 101.182902 59.295569
CG 50.912480 79.059513 78.691201
CG 51.318107 73.766126 73.291357
CG 86.903755 39.561367 49.645548
CG 50.257856 76.853776 99.105461
CG 52.850853 75.668745 66.949184
CG 57.016386 82.456684 52.636004
CG 39.750316 105.730443 56.997367
CG 56.074153 119.337834 71.901002
CG 43.318503 4.045282 110.805712
CG 71.001828 120.772421 99.223400
CG 72.992012 14.438485 92.395876
CG 55.007570 0.462060 88.049176
CG 70.014973 17.791840 61.360358
CG 59.365006 120.437631 58.377465
CG 51.410082 124.546702 70.617300
CG 57.380416 89.442415 39.496221
CG 69.777862 119.993348 51.998669
CG 56.963241 6.785068 67.913200
CG 56.545166 48.975131 71.009407
CG 46.507404 14.848505 75.033383
CG 49.722007 47.429818 95.460595
CG 79.486449 51.020578 69.576940
CG 52.931253 38.389425 70.050728
CG 84.793421 31.463866 80.150807
CG 110.279858 70.363367 119.817478
CG 104.201936 58.397327 110.831544
CG 119.114454 28.080158 8.381333
CG 29.699469 61.906506 12.096282
CG 124.051023 32.208897 37.274554
CG 111.540260 38.980267 53.648343
CG 4.008113 58.612949 25.071411
CG 24.983152 59.953125 19.852385
CG 20.096077 25.216689 113.654024
CG 31.275228 39.284814 38.116288
CG 34.149012 32.066492 3.523560
CG 40.695339 27.953862 11.300177
CG 18.160189 23.808805 18.072927
50
frame
CG 86.654562 46.419853 119.797089
CG 98.602273 66.757089 100.346824
CG 101.577581 68.548382 114.965301
CG 82.096972 53.520707 122.698155
CG 99.000689 45.865438 114.490683
CG 3.717199 75.251371 93.803439
CG 120.441831 74.272327 79.692055
CG 123.181355 57.471129 96.646576
CG 2.023318 54.425876 114.593452
CG 8.597419 79.594797 89.539527
CG 43.889433 93.205147 69.683127
CG 43.606682 63.772274 63.969833
CG 33.842651 58.439440 90.695449
CG 48.772461 72.032178 75.005317
CG 54.582578 78.789065 75.220321
CG 39.567783 91.043528 84.332394
CG 61.438336 71.466251 50.002443
CG 60.545177 79.056522 63.182160
CG 50.159989 97.598465 83.990351
CG 57.616831 100.015361 87.685851
CG 55.155267 104.332491 81.934909
CG 64.255677 116.069103 67.223093
CG 51.637401 3.981095 80.896943
CG 54.583452 0.543899 84.107665
CG 69.015745 4.975664 76.158462
CG 57.309007 119.682903 82.343421
CG 59.738179 119.635439 67.878696
CG 68.087549 120.580630 51.845214
CG 60.314352 16.435501 71.005585
CG 50.120503 12.379097 68.176000
CG 56.016281 5.478210 59.535085
CG 58.027733 5.053053 70.777985
CG 66.921262 40.384711 72.515490
CG 63.560129 33.150357 63.800955
CG 57.158842 29.399115 85.794951
CG 89.454472 53.428548 101.943884
CG 88.097941 59.717172 99.959241
CG 86.935078 30.181681 93.525353
CG 117.055268 41.964037 117.720561
CG 119.132110 60.466621 8.095783
CG 101.176582 37.834159 21.495887
CG 3.894181 53.027928 15.389386
CG 24.762223 55.211024 7.860501
CG 12.788122 32.267224 22.558927
CG 6.569000 32.659730 31.161644
CG 22.187836 51.957039 32.591177
CG 26.833269 37.764611 0.015567
CG 23.176816 29.541626 16.394994
CG 20.636775 30.370241 20.418391
CG 39.206165 30.532926 9.753728
50
frame
CG 101.099331 73.778538 101.710858
CG 85.104036 55.949082 116.709179
CG 100.819605 45.414120 121.188440
CG 0.807333 72.578146 94.453060
CG 2.695660 63.432878 89.734676
CG 122.048882 55.685834 96.515571
CG 115.754663 46.053367 108.230168
CG 124.761489 82.679455 93.210243
CG 7.810696 91.388911 91.630663
CG 5.633968 65.572225 85.967381
CG 21.449556 58.054232 111.514128
CG 32.830051 62.668706 70.187595
CG 53.441801 70.908405 75.551176
CG 33.276753 72.424373 73.212577
CG 37.706159 65.428512 70.745297
CG 31.630053 101.698488 78.283496
CG 46.196094 106.702165 74.793766
CG 45.223441 114.273550 99.204511
CG 63.845535 93.363454 79.643998
CG 76.480997 92.416926 76.517907
CG 55.265823 104.598517 85.517200
CG 61.536309 98.195126 66.868862
CG 56.017764 106.826254 55.983073
CG 51.460737 100.883775 54.475480
CG 50.854237 115.810009 64.204106
CG 56.867984 111.186791 71.412893
CG 67.484278 20.084145 86.822033
CG 55.320997 15.025063 87.724670
CG 58.084611 29.015666 83.224858
CG 60.309529 13.689205 72.632361
CG 66.404896 41.773261 77.651905
CG 62.075307 8.928220 61.960979
CG 68.273857 11.503457 69.586384
CG 92.905591 14.339254 83.079133
CG 86.803988 45.651241 98.757174
CG 90.808109 25.771316 91.088089
CG 91.024595 33.365660 120.165811
CG 100.325874 48.019601 121.921069
CG 82.807187 41.191417 3.586800
CG 94.213996 45.987513 104.369754
CG 117.007172 45.015277 109.144163
CG 3.285226 53.642691 116.057472
CG 120.747821 31.729863 1.480755
CG 21.359856 46.835088 15.295248
CG 26.910261 35.791074 121.620484
CG 13.344703 30.622698 35.814221
CG 0.175224 28.806646 25.813987
CG 22.574100 48.521153 31.623856
CG 27.966844 40.521770 2.829175
CG 22.889355 37.747919 18.503142
50
frame
CG 101.059719 56.611495 115.994797
CG 8.180266 73.118410 98.483202
CG 1.123952 78.675192 70.588574
CG 122.137520 47.372800 96.362882
CG 119.397691 59.893702 109.228684
CG 117.623217 68.825232 101.169279
CG 16.967603 89.883933 94.740154
CG 7.282353 56.838784 95.766427
CG 9.186763 47.723211 88.601956
CG 31.182001 68.259631 93.192216
CG 7.522312 66.151413 73.855684
CG 4.902496 77.501023 115.590234
CG 9.310360 72.430780 80.240814
CG 28.157477 85.957921 79.528545
CG 32.651807 112.101805 82.335440
CG 52.769224 78.943109 77.386259
CG 32.436536 97.664775 113.495023
CG 52.069423 102.142008 76.935238
CG 51.431356 117.350055 81.198203
CG 38.597045 114.795180 76.795655
CG 73.112184 90.578357 48.726902
CG 55.159009 88.428555 70.577809
CG 60.134526 80.592686 67.310569
CG 63.857352 99.732272 60.519526
CG 52.982454 107.593217 65.481149
CG 54.434832 15.394517 63.197259
CG 42.470494 4.467896 73.574685
CG 55.587630 22.928128 93.445699
CG 67.956067 18.869360 85.485382
CG 72.803562 34.338007 89.546503
CG 69.949273 10.681658 86.634072
CG 94.218803 46.120288 95.969098
CG 92.696727 30.091101 99.836367
CG 80.270225 20.844346 99.562845
CG 109.587608 0.090361 93.355076
CG 93.269575 18.637683 115.733124
CG 90.773208 23.089406 108.839005
CG 90.813541 37.770717 113.764192
CG 100.116222 42.915208 97.312074
CG 106.691191 31.111307 115.734844
CG 108.289322 45.710822 104.802499
CG 103.852248 24.364141 105.418279
CG 124.581159 40.390739 109.089076
CG 118.991397 38.907815 111.749046
CG 119.007881 38.962554 17.854919
CG 16.122472 36.311141 112.105252
CG 35.066731 47.145186 20.134108
CG 8.088016 30.776090 15.762454
CG 5.423100 41.895108 38.782402
CG 8.426408 55.571915 21.426349
50
frame
CG 38.266320 75.627626 68.942054
CG 5.293046 54.284907 86.771360
CG 1.647732 61.067776 115.334806
CG 122.979777 83.915199 99.604897
CG 10.622801 88.816747 78.323448
CG 18.726934 63.689087 93.401022
CG 4.621340 48.611956 89.820264
CG 24.410671 60.638456 95.263642
CG 21.315206 67.938009 91.888329
CG 119.262021 62.599740 104.093363
CG 9.679594 75.029382 84.410547
CG 19.890427 84.144472 74.051947
CG 122.481965 105.942241 100.217423
CG 14.771026 93.984395 115.387688
CG 17.333891 85.964142 114.765758
CG 29.645147 106.776155 98.511682
CG 51.393843 105.028261 61.981851
CG 40.698410 87.147729 71.461117
CG 35.577598 90.157275 75.553130
CG 47.382482 92.254611 65.166184
CG 35.994071 102.060810 78.149696
CG 53.486068 109.578108 60.401275
CG 62.983898 108.366630 64.635052
CG 54.449073 116.969047 81.958052
CG 60.311351 112.229267 74.852175
CG 55.786976 116.742661 84.013423
CG 62.598497 122.552479 68.037027
CG 68.608605 13.863709 56.385252
CG 60.230802 6.378963 84.880433
CG 83.088991 30.719749 109.202375
CG 100.462087 30.241362 112.434322
CG 87.662793 21.125882 123.806749
CG 104.227991 17.266915 115.357232
CG 106.557558 36.268552 121.324912
CG 79.976956 22.555563 120.417233
CG 93.099251 25.022853 108.157378
CG 112.262126 17.451154 84.280044
CG 103.471546 0.542346 92.727221
CG 115.100502 17.414777 100.163940
CG 104.096314 29.287793 102.432687
CG 101.238516 20.780443 107.335292
CG 106.213416 33.416310 111.943227
CG 100.605947 41.526200 113.313006
CG 103.618404 21.802938 97.518327
CG 3.308100 43.843253 106.475858
CG 117.186640 48.202206 121.313567
CG 113.608487 43.034218 1.755599
CG 8.859863 52.253349 123.793262
CG 8.925974 56.545419 22.275147
CG 119.701304 34.889914 38.929552
50
frame
CG 24.268896 59.014453 86.707313
CG 34.950402 89.476367 76.256983
CG 41.291111 82.266723 70.171225
CG 34.296638 70.913951 80.704150
CG 16.432248 46.759316 102.133848
CG 20.792961 75.035831 84.718309
CG 22.173175 69.050527 87.036602
CG 1.079198 72.611611 90.501044
CG 1.413607 76.358939 94.008159
CG 18.564246 84.324371 70.417818
CG 11.950708 99.222422 122.443203
CG 123.000916 86.718697 108.401650
CG 32.480833 81.343960 113.324822
CG 12.912064 104.022084 89.850094
CG 20.570985 100.293237 80.074528
CG 4.583217 97.992169 98.697285
CG 13.796576 77.544629 87.203666
CG 24.077732 101.863910 86.454096
CG 41.179320 86.138177 56.808502
CG 47.171299 87.162814 66.141762
CG 34.606687 108.959288 80.776104
CG 42.219823 116.371202 83.834973
CG 33.092733 13.278578 87.590761
CG 51.238852 121.372804 74.841056
CG 65.813717 4.651745 76.492790
CG 73.148183 110.287415 69.271168
CG 81.377839 124.114523 89.556875
CG 79.485006 113.045296 106.552567
CG 100.889303 20.014005 95.570359
CG 84.096039 114.595639 87.258451
CG 86.186724 17.804269 117.659804
CG 99.730646 13.074258 122.326445
CG 84.015931 31.235177 11.559633
CG 96.402675 13.051015 124.735939
CG 113.820062 42.042720 109.871428
CG 117.219222 15.172560 93.217541
CG 97.923913 16.048026 120.043366
CG 115.892848 23.110504 95.523662
CG 102.068189 120.421029 97.456954
CG 107.375446 0.775900 89.550631
CG 108.151131 15.831312 105.044735
CG 104.571740 28.487373 97.995189
CG 103.968064 15.482603 100.347901
CG 111.322331 54.623544 2.740597
CG 88.380204 37.432680 95.730773
CG 98.921753 39.983409 114.765404
CG 102.254720 51.513069 105.816533
CG 100.213852 52.443289 23.811148
CG 104.063652 32.893561 119.886206
CG 8.284919 55.320057 121.335775
50
frame
CG 38.432166 99.261750 77.756465
CG 51.783824 66.375081 81.882231
CG 39.491375 56.613367 71.171421
CG 52.903487 64.900098 68.838895
CG 54.270089 80.372865 69.101701
CG 17.855020 66.910136 85.314438
CG 11.744379 86.905635 96.989362
CG 18.264435 94.617575 75.237349
CG 13.731008 98.425738 98.946413
CG 8.330445 100.763775 122.344221
CG 16.316211 79.002758 92.142699
CG 27.858286 103.030253 105.993563
CG 11.805111 98.226076 86.847845
CG 9.129591 80.115268 93.615276
CG 12.619527 85.143832 92.356479
CG 21.398291 82.385372 64.974613
CG 5.838579 99.102063 89.110065
CG 14.240311 85.829089 80.251389
CG 12.300560 107.114397 105.820918
CG 10.483062 4.041026 102.909152
CG 47.546140 113.907318 66.629589
CG 35.428803 110.420687 83.781905
CG 49.201314 110.498270 83.497078
CG 57.496471 0.631189 80.339070
CG 54.688706 5.877579 96.153272
CG 78.500063 14.483251 104.406167
CG 93.044217 4.798504 102.386851
CG 99.481935 114.881883 101.724740
CG 94.838292 106.679115 119.413403
CG 101.187792 124.601772 4.030454
CG 86.808466 119.772825 106.916133
CG 86.704591 5.316765 96.568015
CG 105.219526 16.485235 99.380162
CG 103.860366 15.291029 100.927857
CG 107.244144 0.698393 122.905335
CG 107.487501 21.850338 5.016004
CG 116.534885 18.860170 104.979192
CG 105.856427 9.771898 109.980774
CG 102.756714 26.243274 109.586764
CG 110.550574 16.500265 105.085254
CG 106.994885 3.062687 84.954036
CG 108.287327 6.998240 103.184421
CG 103.047469 31.734813 100.056968
CG 89.200931 25.299286 93.278073
CG 89.343331 35.064093 3.694047
CG 88.502034 50.040017 124.903364
CG 86.861503 33.109604 118.904773
CG 94.549718 34.151186 84.264388
CG 104.234982 58.994911 97.670205
CG 79.467468 46.390286 96.997038
50
frame
CG 71.697147 59.654353 66.581925
CG 47.364029 77.895973 66.497830
CG 55.799109 93.349164 83.197939
CG 31.526178 73.942965 84.527795
CG 28.236064 88.678177 67.214186
CG 56.877975 96.691526 66.131429
CG 43.969049 100.385137 72.153976
CG 28.924058 95.522062 123.400124
CG 29.526173 94.301781 95.607057
CG 25.936964 99.625641 94.844683
CG 16.443800 109.954835 81.739345
CG 13.477227 84.331882 86.019004
CG 2.105877 84.478542 83.077613
CG 30.331291 87.804473 81.835655
CG 4.698933 87.324300 86.042480
CG 10.237700 84.646885 97.001899
CG 20.544963 104.279931 90.975616
CG 7.096359 118.121038 95.482009
CG 8.572443 123.747673 92.374195
CG 18.284066 102.615273 89.273740
CG 9.701048 115.056193 121.417214
CG 38.440416 6.732663 91.501270
CG 63.591046 114.014302 82.304374
CG 61.503125 122.993160 116.058350
CG 82.961810 112.800823 106.300872
CG 76.940427 123.701922 115.745792
CG 71.227843 115.734278 123.494213
CG 91.785570 22.010262 1.021323
CG 83.622469 115.093053 112.995576
CG 96.188570 124.281371 105.353701
CG 117.419406 112.953724 103.374861
CG 109.100469 121.599830 110.433444
CG 105.242223 93.114827 92.134498
CG 103.701803 5.740272 106.146253
CG 100.119121 2.469845 93.856855
CG 97.514577 3.246979 109.157786
CG 106.800220 10.166865 119.234668
CG 103.943073 19.762753 4.928940
CG 122.826391 19.473759 102.156781
CG 102.581410 22.151820 113.946285
CG 99.752925 38.870846 116.928196
CG 93.252106 22.754163 97.683698
CG 90.284482 16.101209 112.487363
CG 89.183786 6.015801 110.445853
CG 101.539587 27.430636 104.333174
CG 86.991673 14.603143 75.627298
CG 89.032000 43.115744 102.468628
CG 72.314309 48.506208 88.620834
CG 56.235940 38.575883 87.135736
CG 68.275108 40.127089 66.947492
50
frame
CG 55.913272 72.141450 72.051089
CG 62.005054 75.256983 71.940162
CG 50.633717 82.095547 60.318667
CG 56.595233 119.615281 62.548958
CG 51.381002 103.996951 95.945722
CG 34.199403 107.099007 109.485792
CG 49.979322 93.402837 87.552248
CG 61.848803 102.340759 59.059134
CG 45.730054 106.800574 72.950247
CG 33.855268 85.442993 68.539011
CG 23.167910 89.003648 96.303603
CG 15.942472 93.506278 68.004882
CG 28.931877 94.279798 85.406802
CG 120.929019 95.860876 87.733139
CG 23.072905 102.839193 86.096491
CG 11.513534 4.103013 106.372998
CG 5.437793 105.583800 94.419802
CG 17.915831 107.732207 105.895974
CG 23.426560 102.624870 97.457791
CG 31.387074 0.176141 97.948731
CG 34.766986 124.684692 94.486310
CG 44.253613 106.038321 1.996086
CG 35.246925 5.400933 27.147368
CG 65.045847 115.405787 115.557806
CG 69.793379 115.847660 121.923691
CG 73.869992 111.563479 2.775237
CG 81.687000 120.424865 118.517248
CG 65.436908 106.164257 115.054368
CG 100.126467 19.103859 109.234502
CG 98.378618 121.652919 102.857956
CG 95.556995 111.922919 107.083420
CG 115.598066 103.377026 103.821882
CG 108.507895 0.008837 114.662249
CG 104.564317 91.687126 105.309095
CG 103.481962 114.259968 102.628928
CG 107.404943 122.781405 93.821618
CG 96.021043 4.875525 101.773441
CG 106.417568 15.214322 97.955747
CG 88.025376 18.719690 11.332366
CG 96.637336 30.655748 118.862753
CG 98.919797 21.647999 0.331555
CG 88.925851 31.682145 5.837657
CG 94.434023 22.951199 108.447467
CG 98.303672 30.639958 92.756969
CG 78.121141 9.187868 69.925054
CG 80.657216 20.609726 93.160812
CG 65.297097 21.159926 52.684662
CG 61.207837 21.175589 74.825617
CG 58.060024 24.356781 62.500229
CG 50.108339 39.448302 84.916492
50
frame
CG 42.956180 105.183202 66.491555
CG 57.935501 107.328817 69.461732
CG 56.746117 96.122720 86.098625
CG 63.525303 88.891364 99.460741
CG 70.323115 101.316269 74.813167
CG 66.450724 109.356562 54.799556
CG 50.376075 116.298313 88.619802
CG 35.091829 97.219153 67.837614
CG 44.999971 83.343160 72.752506
CG 50.476515 103.692274 57.569081
CG 52.790308 87.490715 52.926396
CG 32.974524 100.935852 89.904678
CG 23.294304 110.862866 88.604375
CG 21.490925 3.083711 93.621833
CG 12.674552 123.042028 102.812268
CG 14.005782 102.331386 81.785759
CG 26.967045 117.340081 105.006885
CG 33.046208 121.464552 96.628888
CG 36.586108 117.143631 109.571630
CG 38.949820 109.100176 13.121749
CG 57.719557 109.795053 6.782535
CG 47.975585 121.722545 0.247857
CG 54.479676 109.933941 118.708815
CG 45.847957 108.620422 23.499338
CG 35.710061 2.153310 29.836332
CG 59.013463 112.627199 116.353633
CG 84.967588 1.608415 110.140674
CG 97.847296 107.344461 102.814477
CG 81.643345 94.218386 111.925703
CG 87.211080 102.937393 118.729589
CG 91.624000 20.703132 111.636409
CG 73.565368 19.081904 102.944585
CG 87.806787 54.843307 21.432107
CG 113.767000 95.064226 51.687726
CG 120.874711 114.680101 6.164086
CG 114.976162 17.979693 105.432216
CG 98.819051 7.168812 107.993987
CG 86.934298 3.336713 104.125273
CG 82.826160 13.517789 104.007982
CG 89.132424 13.205801 124.402631
CG 82.263743 13.175098 118.707854
CG 102.327769 24.005577 107.284497
CG 87.326532 28.166183 91.855976
CG 71.914875 32.206059 96.485627
CG 66.592125 29.839642 82.305555
CG 62.978482 30.194056 65.518303
CG 54.000156 122.243203 64.247512
CG 57.797963 8.709706 64.547301
CG 60.675770 23.347836 68.616796
CG 53.442447 2.574238 62.895613
50
frame
CG 62.843040 5.858955 85.892982
CG 41.179156 117.828976 92.823672
CG 66.067724 0.462981 81.371730
CG 62.786044 101.406587 59.631946
CG 53.273732 103.139370 71.005313
CG 64.463533 82.398458 73.366626
CG 63.330051 87.242872 39.202962
CG 60.952153 106.364244 72.698551
CG 52.164853 109.399759 60.437321
CG 38.892882 101.203703 90.997054
CG 38.419452 122.043795 77.574226
CG 57.331801 2.359283 72.473238
CG 37.441700 120.631417 74.055457
CG 52.566538 105.232493 86.176515
CG 31.377341 119.496704 93.038670
CG 45.883234 2.233614 103.323191
CG 43.227114 2.855369 104.688225
CG 38.140680 108.332021 122.469593
CG 55.270978 123.124383 14.999935
CG 57.408822 115.486297 115.916843
CG 43.594876 107.466582 17.173020
CG 48.533412 108.175364 24.782778
CG 54.281277 106.809263 13.594535
CG 44.938575 0.985956 122.710445
CG 76.580331 105.523470 97.395367
CG 66.305893 118.203328 7.961861
CG 39.912022 88.710197 15.307001
CG 70.195636 121.526335 3.551010
CG 77.662380 123.979286 112.540360
CG 73.294243 18.183499 104.557373
CG 72.575971 110.955329 117.055626
CG 93.518988 117.486364 10.174137
CG 92.394244 33.353839 63.949370
CG 80.692828 56.975872 100.049594
CG 90.296333 110.098649 20.910550
CG 88.146132 33.056730 124.462770
CG 107.949065 31.328176 110.374127
CG 96.440849 19.381198 4.596577
CG 101.806150 0.928304 95.114620
CG 83.550973 123.229146 83.445931
CG 82.461587 22.221771 74.844712
CG 60.123694 10.451586 80.833403
CG 58.764102 21.505516 97.941891
CG 63.621869 14.454875 75.220608
CG 65.093562 23.805963 88.477950
CG 48.714338 8.489296 71.121555
CG 65.277064 41.917127 97.072196
CG 55.474069 11.342986 58.910992
CG 49.339059 99.246271 62.957547
CG 69.161986 119.657478 48.987873
50
frame
CG 51.358560 118.554385 85.972001
CG 68.594224 120.445991 72.780096
CG 52.976011 108.651943 76.149202
CG 54.797349 108.489307 84.443015
CG 65.925242 101.257252 63.591264
CG 58.274735 108.784188 59.347073
CG 54.044062 106.110706 79.895491
CG 50.879200 93.612211 67.947772
CG 51.405968 102.580043 71.630151
CG 57.491831 119.303134 62.128164
CG 50.593988 110.798311 72.980032
CG 37.187853 106.359728 85.647535
CG 45.655100 117.537375 87.686535
CG 40.731985 5.271182 86.900267
CG 49.306917 120.730418 92.109623
CG 41.212032 110.942140 102.130885
CG 44.342529 115.594121 116.477892
CG 52.807485 1.709558 113.290177
CG 42.099969 112.840256 116.256138
CG 42.409321 111.000286 17.782098
CG 56.029639 116.249409 6.977459
CG 52.943575 116.484524 119.880493
CG 55.589863 113.452622 122.698887
CG 63.319541 103.313568 10.680930
CG 43.612704 110.055524 22.315518
CG 56.387732 111.458653 119.929099
CG 82.158133 3.744500 107.723967
CG 64.913540 118.093161 117.707899
CG 60.480202 111.159981 4.293479
CG 79.063083 111.667877 13.136858
CG 86.652453 23.286969 27.151155
CG 75.068816 42.569268 48.716421
CG 80.682070 49.014397 61.754891
CG 94.222214 78.643689 71.277314
CG 94.862086 90.976753 76.187115
CG 95.251211 92.981364 111.283618
CG 88.127784 116.671101 121.810374
CG 91.786777 12.075157 95.602152
CG 86.810885 25.300801 100.889323
CG 84.238987 20.655363 102.123819
CG 75.420759 5.012043 97.436976
CG 78.174711 13.915147 84.604145
CG 71.657295 15.024784 73.758379
CG 58.278884 17.836905 86.575063
CG 57.509315 20.707616 83.701577
CG 64.973284 21.625743 80.112892
CG 53.456440 116.282209 61.327040
CG 60.460251 2.489992 71.803499
CG 67.905614 21.504555 66.284594
CG 51.590125 118.724826 65.329480
50
frame
CG 62.209986 98.680773 61.881378
CG 57.618045 103.543013 76.093837
CG 57.098263 100.785387 70.538103
CG 62.779820 121.406891 69.006998
CG 50.112530 117.280594 86.601768
CG 44.868927 118.666300 85.269384
CG 52.051646 116.684628 85.565838
CG 54.173879 123.448328 61.507873
CG 53.801515 109.212709 82.983851
CG 49.034983 96.059160 69.994029
CG 55.130060 101.120608 80.186292
CG 48.058936 119.940636 77.380501
CG 54.133943 111.915667 91.356932
CG 36.348345 109.463615 102.304488
CG 51.428109 114.651647 109.209058
CG 50.545532 1.793172 100.836315
CG 49.138010 109.807154 102.212528
CG 42.633114 109.023211 119.307941
CG 47.136763 113.276332 113.508885
CG 50.924953 0.371222 107.826427
CG 50.491301 117.665172 101.676341
CG 57.246016 108.967636 2.531262
CG 49.811931 115.891254 12.005941
CG 58.090751 109.543620 121.409406
CG 66.280802 4.464524 0.230133
CG 64.216315 111.521370 0.530278
CG 58.505664 123.978710 12.469174
CG 69.643829 111.403317 9.118049
CG 88.643268 24.339054 27.445570
CG 67.771184 28.466581 62.402964
CG 67.623233 48.997483 75.594472
CG 81.683793 71.859735 72.260022
CG 88.303836 84.366353 44.430904
CG 86.945605 73.976950 52.484191
CG 81.508118 54.432780 40.233074
CG 91.405419 60.670168 37.947137
CG 77.327320 79.430335 58.440659
CG 78.329759 93.052127 88.660852
CG 65.974703 117.529956 115.175863
CG 80.988488 21.096975 100.573134
CG 79.511169 23.340344 100.391309
CG 80.853950 23.177747 104.935388
CG 74.573622 8.052469 89.617301
CG 79.341581 15.167328 81.688363
CG 64.350834 113.469596 54.579726
CG 65.487930 2.520563 77.381950
CG 64.119742 6.532225 63.116915
CG 61.185901 6.452867 79.337012
CG 53.258116 6.486093 70.453882
CG 61.020798 32.566658 87.526128
50
frame
CG 63.319239 90.316599 63.463936
CG 53.958390 93.833940 56.607958
CG 62.112889 117.345409 73.440669
CG 44.112388 103.539940 80.041460
CG 45.910512 122.947870 82.001252
CG 59.514843 1.935173 82.481121
CG 48.417292 124.292039 72.998826
CG 46.275890 116.811774 106.282588
CG 51.139697 119.113108 76.510668
CG 50.168962 122.333252 95.171576
CG 48.055322 115.745541 90.646649
CG 59.803839 94.617084 95.303201
CG 48.068402 103.645102 96.287226
CG 71.340908 109.725649 94.493616
CG 44.040262 106.966713 98.484196
CG 44.671795 99.710580 118.174950
CG 49.815465 120.565259 109.106507
CG 51.674742 118.986964 89.381561
CG 57.286577 119.865719 95.622844
CG 55.504436 103.507718 97.179937
CG 46.353284 112.085188 0.249536
CG 50.340051 124.437917 106.606935
CG 65.952332 122.608655 100.840727
CG 55.259966 8.393205 123.431691
CG 66.175324 111.390163 119.577477
CG 71.097611 7.176220 21.835884
CG 70.204123 6.274453 42.992233
CG 72.363175 46.302027 76.142454
CG 57.502767 47.739893 83.804917
CG 79.112239 82.454264 60.147153
CG 87.405087 77.131997 46.866694
CG 79.547282 56.701357 50.146906
CG 70.489429 50.828419 64.651466
CG 72.192858 50.910855 32.394859
CG 76.721866 77.370539 38.145477
CG 58.848354 79.046924 34.350917
CG 71.483169 59.787486 32.374613
CG 70.404604 71.412137 47.670018
CG 82.428480 76.921093 45.544994
CG 66.437174 85.540339 91.356032
CG 72.222469 122.656983 102.609225
CG 73.715199 7.527154 90.193927
CG 78.848812 10.002296 92.329919
CG 79.667613 117.664204 80.315500
CG 87.960014 10.475061 91.528001
CG 71.199395 117.500311 62.282568
CG 68.903209 12.825167 86.581345
CG 62.876516 27.240539 75.835173
CG 61.075543 21.090080 95.075667
CG 61.742541 14.250679 78.656776
50
frame
CG 48.946345 111.049409 68.395400
CG 57.878476 103.582606 74.002480
CG 43.419403 97.893232 69.852762
CG 56.063206 112.560785 70.847244
CG 62.106965 111.622770 64.370331
CG 40.997385 106.308637 86.713219
CG 49.588467 121.660051 94.852561
CG 53.755144 1.033826 89.802957
CG 43.980873 3.517529 105.208535
CG 54.383159 118.874571 112.794434
CG 53.612428 115.890928 102.707109
CG 56.492041 118.932255 108.762611
CG 56.838841 106.826569 100.550714
CG 47.979703 91.616588 107.308094
CG 61.344361 104.166674 99.656955
CG 66.259166 110.316593 78.529146
CG 53.538551 105.616776 90.417697
CG 58.956452 104.746401 104.297827
CG 48.348641 110.224769 109.019404
CG 50.952902 124.489551 104.478340
CG 71.751704 124.630647 83.426063
CG 59.741508 121.735592 97.600015
CG 55.164207 120.075293 115.312178
CG 71.835682 6.163309 0.126129
CG 63.637541 22.455062 35.650000
CG 62.231917 51.045956 64.255697
CG 71.674307 60.970842 68.664664
CG 71.957337 80.430641 64.580881
CG 78.735445 72.802787 55.745813
CG 76.681961 56.916855 64.174434
CG 62.177697 50.459404 65.719087
CG 67.502095 64.169103 31.390273
CG 73.101738 64.692930 26.183277
CG 57.178938 69.761504 47.421868
CG 52.369008 54.293427 48.825070
CG 64.117652 58.075752 46.708319
CG 68.689194 82.176154 37.869788
CG 59.740262 70.930708 26.737277
CG 65.786668 67.089659 34.952602
CG 73.183425 64.806989 25.242506
CG 74.892265 51.307774 34.222765
CG 70.854538 62.292147 69.179496
CG 79.752774 108.686580 88.831730
CG 70.914088 1.024186 88.763235
CG 73.860424 18.454084 103.595408
CG 83.659388 32.198098 104.871845
CG 80.157164 17.339108 99.659819
CG 75.200754 0.391165 83.350979
CG 77.730530 20.939311 79.700576
CG 63.999618 14.305445 87.890218
50
frame
CG 41.930096 112.411963 81.441857
CG 42.686926 1.702760 79.226555
CG 55.620268 110.421531 67.079680
CG 53.375096 104.467974 73.956988
CG 41.224994 96.574810 91.624481
CG 57.698270 115.753423 75.609353
CG 54.972761 109.216299 95.456556
CG 47.041139 112.492580 95.494364
CG 59.439947 113.469184 118.401032
CG 52.978557 121.764445 97.830805
CG 56.286358 119.587545 121.850833
CG 43.649353 116.019516 113.658698
CG 62.657827 115.284043 112.102491
CG 55.656596 124.830825 91.046955
CG 64.720608 103.477020 90.545506
CG 57.311444 98.780624 100.883876
CG 67.683611 95.686118 96.010429
CG 59.342239 113.745556 93.350807
CG 70.463384 113.425496 81.593874
CG 68.272453 119.491429 98.531746
CG 51.453447 121.275709 108.558573
CG 73.913963 5.513206 1.803954
CG 72.297990 31.272243 21.452647
CG 61.060585 38.832662 44.062125
CG 64.806541 77.251493 58.931186
CG 73.255308 69.620962 37.774423
CG 68.589670 91.890692 46.104709
CG 68.868105 50.396374 44.174516
CG 74.988549 65.309027 48.735726
CG 57.146056 58.486878 37.416718
CG 65.847240 66.279377 30.305525
CG 54.309030 63.585668 67.101454
CG 42.920582 62.759558 52.486235
CG 62.225929 65.253143 42.433547
CG 65.220558 71.087613 29.317135
CG 59.541998 66.281955 37.408433
CG 45.224856 52.484002 46.584965
CG 69.997856 55.727756 33.155806
CG 58.020018 56.313522 25.190383
CG 66.429935 50.951364 12.411633
CG 69.332852 57.899407 24.434631
CG 76.022949 68.963873 24.638733
CG 64.487724 54.256437 40.622796
CG 78.610769 102.256368 94.132437
CG 70.926342 108.201707 86.282439
CG 72.950937 4.244699 111.339623
CG 80.867242 20.127972 92.386119
CG 87.423329 28.285413 118.593126
CG 79.439127 1.636080 93.851816
CG 94.530922 11.502733 85.831530
50
frame
CG 48.875093 2.289217 78.705982
CG 40.564691 104.872815 78.946969
CG 38.939649 121.751101 104.075784
CG 39.799245 120.033993 91.904117
CG 55.339661 120.091394 87.145579
CG 54.660658 101.632393 100.301449
CG 50.988961 97.671225 96.041362
CG 62.367344 104.735017 104.578205
CG 57.348649 103.744429 89.059936
CG 48.174023 106.340806 115.480391
CG 55.550322 115.163046 106.367332
CG 67.184854 121.830157 92.732244
CG 50.048825 122.168048 102.023725
CG 66.206450 113.692228 112.160824
CG 56.044546 118.057763 109.637217
CG 60.801408 120.473629 102.944181
CG 70.154323 122.058546 89.397483
CG 73.762655 106.754723 88.935058
CG 69.659303 114.305167 107.182731
CG 76.615351 118.680418 112.623083
CG 80.750904 21.925456 28.223719
CG 61.494680 46.155168 43.140125
CG 64.920559 66.570013 48.731157
CG 74.533041 85.635176 40.867294
CG 77.802505 71.765462 18.440554
CG 66.256130 60.792108 32.806517
CG 67.050024 49.183208 26.584232
CG 62.233599 73.012377 18.821134
CG 44.591692 66.354178 20.828079
CG 57.090360 71.366127 41.172482
CG 49.877864 71.719893 48.284088
CG 53.501716 62.778161 31.298754
CG 64.217207 70.173194 45.710035
CG 49.933995 60.464190 47.120031
CG 44.337015 61.324705 54.205537
CG 56.820943 59.879518 29.439315
CG 69.367879 47.510678 12.052758
CG 51.413294 45.957904 29.227767
CG 62.406181 44.914162 29.163890
CG 62.127136 60.122280 45.435017
CG 56.266936 70.374797 33.132639
CG 64.054716 78.995076 38.886047
CG 71.456095 81.756564 37.560457
CG 69.052154 54.278393 23.058635
CG 78.087887 67.991263 52.022758
CG 78.644924 84.417965 74.077380
CG 74.616267 96.718711 102.214604
CG 85.665759 0.685307 91.134240
CG 102.860979 20.226927 112.755325
CG 99.203883 12.155962 121.581608
50
frame
CG 36.640284 110.027080 99.321281
CG 49.039891 5.617954 101.950335
CG 44.951976 123.419549 89.008365
CG 47.665573 111.883870 109.343569
CG 46.156511 115.294874 110.349869
CG 42.862108 112.750134 111.999765
CG 60.178698 116.284176 95.009209
CG 52.108050 95.993832 103.176177
CG 48.965425 102.194578 99.507284
CG 75.421215 104.372513 87.266934
CG 56.768248 104.814015 74.537982
CG 59.290003 105.100538 113.976544
CG 63.822456 114.332458 102.423616
CG 58.987591 120.290823 103.219970
CG 65.064580 11.064010 102.469527
CG 79.051619 2.334332 98.918986
CG 60.120558 5.489089 122.368804
CG 75.321001 12.392845 8.355527
CG 79.627015 27.360283 31.005746
CG 68.231666 44.879562 46.766367
CG 78.016257 57.580110 34.501936
CG 83.313739 70.059930 26.440742
CG 82.212570 60.794775 21.799349
CG 70.117798 55.838427 20.898594
CG 62.139548 44.182325 26.101590
CG 64.858564 78.767365 14.500032
CG 54.247072 60.602018 1.949234
CG 48.801583 70.718772 27.875744
CG 53.574916 63.828953 28.089224
CG 50.334294 73.615419 14.787019
CG 47.556376 65.840036 29.064782
CG 54.054142 75.066441 30.350890
CG 47.394312 62.031377 35.671269
CG 52.274862 62.220604 26.747673
CG 65.387908 45.137065 21.500276
CG 47.650159 38.022222 39.934640
CG 52.365458 59.787638 45.371096
CG 57.912093 62.027974 32.388067
CG 61.112585 69.153052 34.551419
CG 51.804353 71.106718 42.145365
CG 66.322163 66.007047 49.159069
CG 55.435029 49.189717 43.938394
CG 67.330610 74.404739 43.077308
CG 67.368466 73.785059 33.937922
CG 73.532026 69.863724 43.251433
CG 83.176117 55.091106 16.740615
CG 100.593396 70.166295 56.613258
CG 92.003199 64.916840 86.146355
CG 89.950853 101.213585 117.074660
CG 92.607421 4.635184 117.636013
50
frame
CG 47.937863 3.378099 116.497766
CG 39.145393 113.223177 121.371303
CG 48.770222 104.609034 117.230682
CG 51.037697 124.964096 109.485789
CG 46.157463 112.625692 106.583657
CG 52.463740 115.499149 101.135189
CG 39.534697 109.984403 120.643164
CG 53.595004 122.149864 88.075232
CG 69.302405 112.115608 89.969164
CG 48.905868 100.028658 91.998226
CG 67.780452 100.370461 113.721402
CG 62.477861 106.758767 80.396966
CG 72.453197 113.627048 87.307978
CG 71.154631 0.764200 96.808063
CG 74.385494 118.980616 114.411560
CG 62.377366 19.594171 19.376131
CG 84.974792 39.609235 38.563770
CG 68.069906 69.529060 60.195657
CG 68.100118 75.335597 46.380775
CG 85.999605 84.413274 39.591813
CG 75.173331 66.440911 24.869081
CG 79.252430 45.840502 22.003087
CG 72.691758 44.000121 10.597734
CG 71.569403 48.486516 2.669209
CG 60.905512 69.982092 6.307016
CG 50.147843 44.949545 12.712128
CG 51.095744 78.325595 35.793878
CG 54.749861 62.216379 6.239684
CG 56.193051 72.332710 9.721242
CG 45.725111 61.938408 23.123554
CG 55.168602 64.883574 5.883865
CG 45.356066 59.466902 17.204399
CG 49.523885 50.293783 1.787351
CG 56.303690 47.824913 22.478717
CG 47.054189 62.749587 29.769644
CG 62.064965 72.111316 28.623203
CG 50.783563 60.899351 42.341586
CG 54.359697 68.548159 55.736832
CG 48.169367 74.523974 61.816582
CG 62.591695 55.820973 33.834828
CG 59.689245 64.543388 40.309245
CG 67.623475 77.977859 41.216462
CG 61.072955 42.128740 44.860995
CG 76.272657 60.363347 55.596370
CG 85.356206 66.315204 33.950521
CG 85.351340 70.826335 71.350074
CG 81.595101 65.520422 45.455042
CG 92.735479 72.415983 53.610229
CG 87.216212 43.487953 48.728460
CG 83.306126 23.776283 74.884521
50
frame
CG 49.819987 108.423249 13.517242
CG 54.131574 117.099779 122.403330
CG 46.398404 2.539221 8.627670
CG 41.504770 105.176879 117.103752
CG 49.922108 112.769044 117.700873
CG 53.915821 122.234188 100.164833
CG 60.369564 116.236577 83.934111
CG 53.415059 112.790657 108.309077
CG 46.487069 111.667421 117.686754
CG 56.755942 0.353783 99.822810
CG 68.931433 122.842167 85.681223
CG 72.591300 120.291666 93.359016
CG 68.565077 113.787302 120.318847
CG 75.154724 0.024053 4.566974
CG 79.260245 31.134450 29.032822
CG 74.892243 59.611443 50.292206
CG 69.655515 71.658698 41.623140
CG 79.351233 77.714202 35.092401
CG 83.010254 80.046795 36.076098
CG 69.852214 60.317127 24.809952
CG 72.202594 62.226574 28.024799
CG 64.518040 67.556639 14.378347
CG 58.046061 69.985831 12.722532
CG 56.261083 53.221177 18.637579
CG 62.686548 56.032599 13.154039
CG 63.266714 57.990772 7.511540
CG 62.008892 54.346146 123.601147
CG 51.553256 56.155732 16.999689
CG 46.084777 62.850726 12.578927
CG 58.673789 55.897047 124.096986
CG 49.698632 52.260044 0.460086
CG 53.633694 38.503833 123.651584
CG 56.526126 65.419184 15.583249
CG 47.415798 71.196518 12.636984
CG 46.271436 68.401319 25.507744
CG 49.878100 73.820262 39.651854
CG 55.202421 79.369178 38.849421
CG 56.837687 66.094112 35.498975
CG 60.346765 51.120297 35.962317
CG 60.843225 76.801217 65.645567
CG 53.261546 57.119843 51.204457
CG 74.513001 53.051183 47.168867
CG 84.898341 75.360008 42.532554
CG 80.944636 61.663984 58.272444
CG 72.079741 47.234319 73.045290
CG 80.789521 66.620123 64.299494
CG 75.400883 43.963719 51.218576
CG 71.075182 19.801388 41.936256
CG 78.857262 121.465582 14.109220
CG 85.962048 114.302979 104.156172
50
frame
CG 52.982606 113.530219 8.591045
CG 50.510692 107.432433 18.849303
CG 51.898800 107.412123 123.298703
CG 59.876714 122.748657 124.278769
CG 57.049609 2.157614 107.402178
CG 46.121211 101.877186 124.251882
CG 54.783900 118.226912 121.103187
CG 57.589695 120.612340 107.454354
CG 62.642563 7.735622 81.107532
CG 76.519378 2.632904 112.246108
CG 48.899121 5.965391 124.964527
CG 66.440468 18.373159 34.375891
CG 76.280043 46.480953 25.140708
CG 73.966077 57.830924 50.123602
CG 65.076320 67.969265 43.804588
CG 89.832548 54.603599 13.190077
CG 78.220583 64.102153 24.298495
CG 76.956324 49.733041 14.030074
CG 68.850948 50.202155 15.803733
CG 62.938159 66.661594 18.409389
CG 60.730516 77.810127 17.568263
CG 51.309011 73.879975 26.444027
CG 61.097339 68.180100 30.317698
CG 58.442294 82.243796 16.793751
CG 56.256347 51.711005 10.493741
CG 59.641855 66.527029 16.128591
CG 56.446553 40.179333 122.888190
CG 64.941797 53.055033 119.548580
CG 62.700948 29.110445 115.489932
CG 52.225443 41.598244 122.063010
CG 53.187336 54.292735 16.484224
CG 58.507458 80.556420 5.833828
CG 45.330671 62.802154 16.684263
CG 50.277664 67.707397 21.765991
CG 63.399272 78.730972 21.529381
CG 43.951423 63.959016 17.873241
CG 54.419858 60.012123 23.117777
CG 56.616926 74.163359 41.437547
CG 63.565487 74.871230 38.973163
CG 64.826760 52.072581 35.080018
CG 92.117149 67.418235 49.779747
CG 67.955917 62.419282 74.694278
CG 67.073990 57.313058 83.633335
CG 73.502754 56.446219 54.977598
CG 78.455845 63.381080 54.781170
CG 62.923540 114.795688 22.975117
CG 72.540822 110.801508 37.229983
CG 74.987275 103.547279 114.069985
CG 72.901572 121.481539 111.941001
CG 65.952754 124.195832 114.898249
50
frame
CG 51.656364 108.402014 9.741669
CG 55.792597 117.211243 122.766736
CG 55.504032 120.183835 3.233933
CG 48.548040 106.914231 1.406398
CG 52.042295 107.996497 3.781013
CG 61.272427 3.673944 110.539362
CG 58.476833 123.306465 99.918281
CG 60.180856 120.718831 113.196745
CG 56.988397 121.747699 8.532250
CG 54.678371 10.752506 1.339384
CG 76.664404 25.961361 1.714596
CG 70.131308 33.487527 7.497507
CG 61.094726 32.832887 27.141652
CG 73.436799 39.182568 18.155007
CG 83.008256 48.023383 21.363837
CG 68.295696 58.906167 37.443350
CG 72.001626 54.319828 24.040452
CG 72.619022 64.189583 21.303297
CG 69.917162 70.414771 20.021003
CG 65.487917 61.940527 19.633466
CG 62.249391 59.453986 23.452187
CG 64.499360 70.486552 17.494997
CG 55.983102 70.590850 12.889141
CG 56.747737 58.869820 20.261565
CG 59.630886 66.496388 15.602250
CG 59.413269 54.077669 2.266587
CG 61.483861 53.984911 5.108312
CG 54.829435 44.775596 5.323914
CG 54.559259 57.669073 7.361220
CG 61.516011 60.156820 4.552376
CG 55.493856 53.166879 123.759962
CG 49.446751 47.791183 13.530450
CG 59.187676 69.420354 15.022158
CG 53.455711 70.568883 13.710919
CG 45.026736 60.311082 20.065470
CG 59.995192 72.127046 30.621022
CG 58.464589 76.043367 32.372599
CG 59.517874 59.583334 25.301933
CG 67.847381 59.621363 38.553977
CG 69.231277 73.590622 57.940808
CG 56.999168 61.113264 59.548991
CG 75.281143 58.248727 46.056712
CG 80.299983 68.008160 44.140061
CG 68.666119 85.785068 55.380890
CG 66.303716 91.551029 46.696927
CG 78.035566 73.568870 35.115461
CG 72.616928 93.415520 8.961004
CG 66.639500 118.699187 17.839032
CG 68.526900 113.708842 9.673408
CG 73.976834 113.500723 116.845557
50
frame
CG 58.000831 122.890727 114.817027
CG 50.641813 110.008178 122.202469
CG 50.978140 108.090435 6.606803
CG 58.273135 123.392868 115.053039
CG 58.211678 120.999351 117.112839
CG 59.294212 119.501181 119.575130
CG 57.437636 117.734544 16.440416
CG 58.501567 15.772733 8.854221
CG 69.124298 20.214079 16.700421
CG 61.047782 26.557997 14.553503
CG 63.137619 24.466638 28.424737
CG 63.980342 29.493452 118.024043
CG 81.765683 28.482765 115.986793
CG 65.548704 31.236250 121.342780
CG 62.870666 23.356204 8.783282
CG 61.995512 43.426379 18.526061
CG 69.875146 56.466300 23.271582
CG 59.105307 68.589332 39.393797
CG 65.275178 63.644336 31.325757
CG 72.124169 67.695266 22.650963
CG 68.356502 63.324223 13.814248
CG 66.989217 46.855534 12.591805
CG 64.726770 52.889069 10.287657
CG 64.440729 49.038410 1.326514
CG 59.847920 62.439188 5.980182
CG 54.550348 48.039721 13.371284
CG 55.188295 76.041284 21.755045
CG 56.422058 69.477765 15.533705
CG 55.672880 73.409651 14.723131
CG 50.798382 55.703855 18.756947
CG 59.619510 68.247323 11.762753
CG 60.011160 56.008898 8.282130
CG 53.455785 47.652460 4.807762
CG 58.196439 51.346892 21.725736
CG 60.199612 67.954438 25.369081
CG 63.446350 64.261470 22.863750
CG 61.725254 58.575593 34.129462
CG 70.532071 71.967806 49.423822
CG 54.905769 65.138284 51.478846
CG 64.452708 61.485089 35.887899
CG 62.661911 67.039441 31.144988
CG 65.148684 94.760062 35.899453
CG 57.331655 95.668974 23.480352
CG 78.031219 80.693057 18.479721
CG 75.917675 92.612886 4.690409
CG 69.310662 95.326918 39.178545
CG 65.132188 92.668131 29.233625
CG 76.111230 79.057336 33.835621
CG 73.914738 88.177638 19.479604
CG 69.435197 103.670625 39.280088
50
frame
CG 47.237180 105.564574 114.717750
CG 59.440825 0.005008 111.151689
CG 62.791658 4.440909 97.092975
CG 60.444853 120.284163 0.823017
CG 60.302875 3.410371 12.190884
CG 55.502966 5.103103 25.572811
CG 66.790213 26.297170 22.795022
CG 64.813303 17.292417 31.408393
CG 57.663410 26.787671 20.206080
CG 75.208330 27.885712 13.404537
CG 65.034963 25.583255 114.149349
CG 66.260804 19.216529 18.683255
CG 53.469160 22.208277 4.328209
CG 61.395462 28.059491 0.329833
CG 60.126294 47.076324 120.688866
CG 63.935861 34.076759 119.293775
CG 50.267012 37.919930 19.590942
CG 67.084327 38.117893 10.815097
CG 66.142184 51.567771 20.091986
CG 59.519765 51.528711 27.995777
CG 69.605358 51.967609 19.222970
CG 69.014690 55.571746 7.926105
CG 73.407389 44.908449 5.861971
CG 64.291925 52.807302 10.435493
CG 60.386303 46.115563 13.877194
CG 62.258719 83.063336 18.277069
CG 53.763336 61.950782 12.339664
CG 53.044960 74.624516 26.892115
CG 57.144536 68.889798 25.881001
CG 58.189197 78.200159 16.337054
CG 51.916153 57.830741 26.127778
CG 58.892704 67.586119 22.616920
CG 63.844381 63.625539 28.642644
CG 67.007213 54.661180 15.053467
CG 73.926418 44.062730 20.919006
CG 62.460580 49.399270 40.842301
CG 65.010883 61.080961 41.394786
CG 57.409870 60.325012 33.266912
CG 67.555086 73.705533 23.326138
CG 57.171690 88.460973 26.106352
CG 65.255495 105.087115 16.872573
CG 57.815402 80.985945 3.081088
CG 67.912491 88.304272 3.810067
CG 56.841177 107.951637 6.595429
CG 61.709276 89.213740 25.594352
CG 71.241629 92.446446 123.202545
CG 80.954784 83.666334 33.193311
CG 68.586154 84.059103 43.816950
CG 68.637132 80.383752 69.346912
CG 75.035960 53.189341 57.029414
50
frame
CG 65.606811 8.478910 98.579723
CG 56.206615 116.421171 111.011868
CG 56.505957 124.032031 9.300116
CG 58.739086 13.289890 11.013095
CG 66.469006 25.013883 12.208006
CG 71.517727 30.842596 26.189076
CG 59.128842 25.167683 20.757976
CG 68.197279 26.157003 18.138655
CG 70.999230 23.242373 7.105501
CG 57.190063 12.931220 18.951845
CG 59.312519 22.609379 16.482663
CG 61.832549 30.472860 3.179728
CG 52.798738 39.232660 7.443397
CG 56.490898 31.160459 13.699159
CG 50.685706 26.075937 12.384650
CG 56.078094 32.907989 4.293932
CG 66.820009 33.041896 106.027225
CG 58.121059 24.151722 115.701555
CG 56.129730 21.699709 1.537361
CG 67.897398 26.385356 120.033774
CG 63.411604 35.148894 12.324498
CG 63.149036 50.190162 25.519458
CG 60.106704 59.497808 23.947356
CG 67.834289 72.474609 24.476981
CG 68.183956 67.908758 17.199886
CG 60.537384 54.867278 17.847575
CG 65.379577 59.476589 24.029789
CG 63.054589 70.868028 14.933409
CG 51.829254 61.613629 22.099177
CG 59.314615 70.887918 36.435675
CG 65.111410 76.438526 33.000805
CG 63.559702 67.368785 33.642629
CG 71.000479 60.471311 35.126355
CG 66.895624 63.420980 46.512715
CG 60.357416 59.217072 45.132277
CG 69.572548 55.122066 22.204235
CG 70.065776 58.268786 11.087751
CG 60.003590 71.585485 11.855194
CG 64.217322 92.530066 8.748839
CG 62.693281 88.334781 123.602547
CG 60.580970 83.071236 122.231649
CG 60.645111 106.470030 2.048764
CG 61.021003 99.332672 11.820580
CG 59.036670 82.672424 1.014654
CG 67.565269 90.589417 14.099224
CG 60.996730 85.328086 36.892130
CG 59.899851 79.325112 43.587852
CG 73.358313 68.397553 38.297903
CG 79.132847 46.350427 56.178830
CG 68.480100 66.007823 73.281786
50
frame
CG 64.417078 9.444286 8.454169
CG 67.672904 26.987194 3.994865
CG 67.334426 26.810588 10.400832
CG 68.157397 28.493951 9.893040
CG 58.616438 21.483408 19.111292
CG 64.715556 29.296824 120.549793
CG 75.331325 22.357943 3.662789
CG 61.263614 26.204935 5.008475
CG 58.483370 18.984611 23.083193
CG 57.791584 35.070747 4.455122
CG 57.893232 32.104191 25.549097
CG 44.374616 29.490640 16.485344
CG 63.539396 22.648157 22.032339
CG 51.803409 35.055250 5.216501
CG 62.204370 24.919515 122.152832
CG 52.492784 20.334877 3.333907
CG 53.661489 10.133998 1.205999
CG 57.180139 23.432185 115.648375
CG 66.307432 18.567854 97.014103
CG 56.589919 23.913798 119.757422
CG 52.138255 33.400131 2.415175
CG 61.764532 38.380842 8.792252
CG 61.747146 59.251702 25.852340
CG 58.229370 48.314234 27.756393
CG 62.795977 71.510204 34.665702
CG 70.875832 60.397851 24.608013
CG 65.514956 71.601453 23.629996
CG 65.352917 46.006553 31.166479
CG 77.619841 72.460320 32.032216
CG 67.275791 56.146321 28.805628
CG 68.918554 63.585856 35.719858
CG 71.005115 66.029907 55.006728
CG 59.210739 72.721675 49.728751
CG 93.356633 15.109437 102.769144
CG 69.192768 78.500318 22.104897
CG 63.210751 88.165881 19.018221
CG 57.548911 90.349338 11.312733
CG 78.089260 86.909984 114.730604
CG 59.856564 65.020181 111.093997
CG 65.394474 85.541423 115.997074
CG 59.744218 90.904277 0.994923
CG 65.361010 82.650002 3.898744
CG 57.517338 84.583641 3.476020
CG 69.514187 86.826821 39.098072
CG 55.761515 81.878835 27.951427
CG 35.010345 112.661752 104.126085
CG 65.841770 56.590223 34.574619
CG 61.068049 59.793721 67.978734
CG 58.070068 74.992678 42.208465
CG 76.904973 60.530523 34.697048
50
frame
CG 70.003692 48.489467 39.904729
CG 74.341174 41.893030 36.234264
CG 70.200794 38.047239 9.842976
CG 69.955430 35.043920 124.287134
CG 77.401864 31.148186 113.715416
CG 59.778508 15.833879 3.943059
CG 52.167117 25.374735 7.603247
CG 59.417260 28.367711 124.247381
CG 56.768607 40.664460 3.675827
CG 55.677300 33.988606 21.053552
CG 53.449985 26.194176 8.489652
CG 62.542148 31.569520 19.335645
CG 50.924933 25.146818 5.494834
CG 55.672814 9.636472 9.306650
CG 55.037210 16.078679 10.770683
CG 61.414614 16.517405 114.305439
CG 56.094271 21.067444 119.457924
CG 55.179096 13.185472 1.095942
CG 45.804710 28.990320 14.566281
CG 51.851228 36.265700 124.302941
CG 65.760626 38.239673 114.684029
CG 50.635923 33.564353 124.105482
CG 56.778103 28.558402 5.354061
CG 63.636807 43.691360 13.598535
CG 60.890568 39.765191 25.541394
CG 61.349785 60.726471 43.463248
CG 74.044907 59.655786 42.071026
CG 79.076340 70.576492 39.346481
CG 75.642225 52.419108 39.129553
CG 81.410452 57.830990 48.272164
CG 72.860902 56.204255 56.323510
CG 70.979059 55.728159 48.590518
CG 76.472435 60.633449 66.081114
CG 102.039308 13.134208 86.643037
CG 64.200154 0.474825 112.423066
CG 72.653165 110.648110 113.998859
CG 71.804657 93.914786 117.240108
CG 53.763949 92.073941 3.744791
CG 67.335499 99.709284 2.724307
CG 68.224800 74.919927 124.673729
CG 67.439464 68.636680 122.404171
CG 63.609112 66.194034 20.536480
CG 65.285978 71.118458 28.565684
CG 54.789219 77.297026 12.004137
CG 76.772721 80.947062 36.718219
CG 10.415236 79.470859 16.145554
CG 51.477561 70.891994 39.156138
CG 57.895349 64.305907 2.948147
CG 64.811826 65.591252 23.533140
CG 47.983451 71.125753 31.565573
50
frame
CG 80.956474 69.222970 34.824926
CG 70.803419 55.834111 26.796229
CG 78.360431 50.472729 27.150621
CG 68.986811 33.446201 24.763222
CG 57.872433 36.860108 7.916598
CG 67.870127 43.905713 1.587305
CG 60.102743 41.690581 115.704483
CG 51.975902 31.306914 18.216677
CG 52.286425 27.122849 124.106282
CG 58.955723 23.728953 1.632503
CG 56.501637 33.983955 121.923436
CG 58.832359 13.457947 124.404901
CG 53.558352 17.577081 3.573908
CG 64.944336 19.376360 3.145645
CG 50.732615 15.440146 122.691390
CG 52.583897 11.698497 17.406806
CG 52.802605 28.399745 15.275144
CG 51.811569 37.439285 5.947766
CG 56.681879 34.306030 5.828706
CG 54.191881 25.234380 8.157450
CG 42.588655 24.297200 19.434408
CG 61.207248 37.676178 4.615969
CG 60.848964 28.722883 119.575483
CG 55.709206 35.685390 12.730828
CG 68.085874 29.869375 14.688385
CG 72.837254 38.441173 22.898683
CG 70.114855 32.477591 43.166095
CG 74.488705 57.965409 57.586679
CG 72.963615 53.464611 66.362924
CG 77.580262 63.726528 63.226662
CG 86.327574 52.560867 61.370939
CG 84.681923 57.794100 58.486618
CG 76.057471 58.308479 44.010274
CG 104.194068 11.955998 65.910149
CG 78.646034 107.839069 99.590256
CG 66.714012 119.524080 101.667963
CG 70.142442 4.818978 107.182484
CG 71.886789 103.781857 120.722449
CG 71.628035 90.239399 8.108485
CG 57.421175 82.353360 28.725736
CG 68.434004 75.763446 35.099348
CG 64.802000 74.353166 9.842985
CG 81.503757 65.740215 24.133214
CG 92.080996 58.029509 36.983269
CG 88.598428 58.617209 27.177623
CG 65.554028 27.234471 104.664180
CG 54.061732 90.412505 13.403774
CG 44.126603 91.577719 25.757819
CG 37.029201 67.941741 18.382652
CG 47.595808 69.873977 121.659494
50
frame
CG 75.142517 53.177897 12.019561
CG 80.239757 64.309477 22.235842
CG 64.434928 62.015147 32.050985
CG 68.039158 71.415791 25.656614
CG 65.778890 58.712363 38.790353
CG 55.913506 49.977778 27.399522
CG 62.635883 37.280653 17.461784
CG 65.773677 42.119184 111.283115
CG 62.654879 28.846308 123.999405
CG 52.267937 20.388593 111.725412
CG 58.063622 7.287902 123.762325
CG 53.056429 21.868062 109.767143
CG 65.527778 18.494902 117.551893
CG 45.197172 20.976375 2.458629
CG 59.827896 28.317847 14.873688
CG 51.385863 44.003350 13.190540
CG 51.329327 25.362362 11.339435
CG 52.855074 24.704007 25.504861
CG 51.684668 22.902023 14.722524
CG 56.042323 35.982366 16.730136
CG 60.612527 30.899109 7.273860
CG 53.883538 18.892909 22.187609
CG 55.706641 36.043906 35.440265
CG 72.311832 22.524012 10.886197
CG 67.338936 33.598182 18.018255
CG 68.334807 21.306754 27.772299
CG 69.547271 39.322255 36.031263
CG 68.753574 15.746461 46.999003
CG 81.785413 45.137251 59.807817
CG 77.155612 44.746178 65.226245
CG 75.671565 63.317175 52.791313
CG 82.855264 68.661703 47.027983
CG 87.498904 87.378148 32.453584
CG 124.628243 47.682719 76.678465
CG 59.006519 27.714225 105.232930
CG 79.299970 115.467752 106.985993
CG 74.404316 95.788810 119.129604
CG 76.042957 113.900448 124.569818
CG 64.032685 102.563103 13.920872
CG 80.620446 104.852221 7.450548
CG 77.486844 90.445927 24.946185
CG 94.628644 73.436723 52.166068
CG 86.659568 65.413704 26.583765
CG 90.942051 62.751889 10.576884
CG 85.317768 44.585386 1.133493
CG 17.521456 36.585059 105.114375
CG 26.860047 124.907080 7.645916
CG 39.406222 103.965895 5.089632
CG 39.272902 107.146439 111.907739
CG 33.284533 88.627227 14.648080
50
frame
CG 65.190215 60.429165 20.275912
CG 64.810541 61.929487 15.280157
CG 68.822574 67.975939 15.851754
CG 64.893178 70.793843 31.665131
CG 68.623458 68.382630 27.113295
CG 69.655612 61.254843 20.576555
CG 64.568662 53.382572 32.146112
CG 59.922787 32.091706 14.402658
CG 63.900088 26.645614 1.250138
CG 66.988231 32.693916 114.103302
CG 61.081178 24.609907 107.380686
CG 53.171874 21.995291 1.365672
CG 47.438627 25.428514 3.999293
CG 56.162524 39.585342 124.423300
CG 53.043418 35.439321 4.290014
CG 53.524170 23.183367 6.855730
CG 56.398829 33.202801 19.956599
CG 55.260484 32.327865 13.462531
CG 55.812009 29.386452 24.931984
CG 54.075372 16.499873 29.817565
CG 64.314040 30.020249 34.928906
CG 66.774823 31.680986 25.680190
CG 71.287201 20.407293 22.416428
CG 60.441230 22.419539 47.552804
CG 61.701393 26.107466 51.657627
CG 66.829534 22.832569 40.172691
CG 76.149596 24.416160 35.303828
CG 76.484422 33.911535 32.237935
CG 67.224511 30.428126 21.486016
CG 76.616721 37.338372 23.898421
CG 81.840572 66.559854 36.795698
CG 73.402613 75.387806 43.637548
CG 76.951823 77.188025 60.980694
CG 72.496031 57.199906 84.165671
CG 53.421884 122.391090 120.380514
CG 48.144470 15.189213 8.167482
CG 60.681571 7.740064 6.825592
CG 75.785489 106.557677 2.787528
CG 93.765209 106.390255 4.633761
CG 100.754423 96.433520 24.058286
CG 95.505841 93.784978 6.082936
CG 93.850988 91.427818 120.200715
CG 91.219155 72.290013 9.600854
CG 88.504602 49.557389 18.049539
CG 96.616660 51.463994 15.356458
CG 73.498785 84.197309 90.998971
CG 29.620446 112.413807 112.294598
CG 16.882702 2.958155 113.301297
CG 24.579986 12.246441 14.568256
CG 30.031786 23.372980 115.850192
50
frame
CG 57.912707 77.338776 20.776007
CG 52.689693 67.856977 27.247889
CG 65.400493 64.874669 19.757827
CG 68.991035 50.636107 6.753854
CG 65.721337 58.241834 6.561401
CG 69.378582 54.585020 21.633795
CG 69.226655 54.386576 0.378507
CG 71.293046 54.864863 28.867176
CG 62.433997 51.985936 15.638074
CG 59.784313 32.471477 28.789527
CG 55.050120 50.502794 14.807962
CG 67.226820 46.911690 0.264615
CG 54.002503 44.745890 120.919346
CG 58.120497 22.504675 8.271649
CG 47.161173 27.583738 3.379613
CG 59.311471 32.520317 8.285639
CG 56.216331 32.597351 9.563697
CG 57.552205 22.641457 19.296389
CG 66.203474 32.666896 32.331781
CG 70.679062 34.808552 26.766882
CG 60.833516 15.248103 38.615826
CG 65.264450 20.012715 53.700611
CG 64.324098 21.978160 55.858282
CG 66.226924 30.937665 49.844791
CG 77.517294 12.164106 38.894994
CG 71.045602 35.319696 49.882938
CG 60.055628 20.921791 37.356465
CG 71.110769 44.382615 17.137337
CG 78.717677 47.676707 16.288834
CG 71.665566 69.050440 14.526078
CG 68.113419 39.892251 26.053670
CG 82.909947 51.325358 37.320342
CG 77.823450 45.683310 53.563112
CG 122.161545 3.228675 103.325899
CG 49.479989 27.825045 24.607447
CG 57.730993 7.347497 9.596973
CG 72.165731 7.856676 8.270031
CG 75.053717 3.544927 26.268615
CG 88.773183 117.624908 5.138482
CG 84.852364 96.991801 108.432121
CG 106.408113 86.597633 118.237090
CG 93.727932 72.446382 115.646883
CG 102.998370 77.241185 116.076049
CG 97.006828 76.179092 108.519534
CG 89.327234 56.809749 117.460311
CG 3.767922 18.210711 90.562245
CG 23.923417 31.372665 17.079595
CG 25.177176 40.933156 122.542771
CG 16.969690 31.395523 105.154932
CG 9.234277 46.626898 116.965940
50
frame
CG 58.503714 64.813254 23.144864
CG 65.861796 66.237667 13.023283
CG 60.091780 63.369928 14.393232
CG 61.192502 65.965729 22.575433
CG 68.031506 56.482930 16.266928
CG 67.995046 55.017171 9.130942
CG 65.782533 53.381257 23.081550
CG 62.400715 46.307504 12.714949
CG 64.637485 47.799609 16.313284
CG 65.712985 56.997470 7.752959
CG 63.179603 41.582680 9.028933
CG 53.181015 33.452076 16.623196
CG 57.768253 33.789209 12.432865
CG 57.070312 43.797818 1.606080
CG 61.085234 36.003211 6.477892
CG 54.042234 25.823100 11.547194
CG 58.886405 27.659747 18.649393
CG 63.729934 35.297777 19.720680
CG 59.254240 23.508703 21.922059
CG 59.238523 18.907172 38.602188
CG 68.098757 31.386851 42.159841
CG 66.606858 27.931564 37.137952
CG 69.183576 20.584958 40.051541
CG 69.341602 19.832164 48.027282
CG 61.505497 32.468708 48.856419
CG 68.382707 27.608704 30.579371
CG 79.133576 40.975418 28.199561
CG 70.541753 41.505623 34.628167
CG 64.815729 39.779141 30.649875
CG 76.241298 36.042167 31.905471
CG 84.707715 51.919134 38.386970
CG 95.587574 33.984031 61.557571
CG 3.137990 27.283491 88.709452
CG 8.162946 40.735978 86.759183
CG 7.673990 16.329675 86.628045
CG 37.434459 11.764436 124.733599
CG 61.885836 5.065774 12.611876
CG 75.360560 115.961418 118.164241
CG 82.612001 107.359238 1.418093
CG 91.235427 103.298685 10.833720
CG 87.078569 95.554103 120.362764
CG 97.174263 89.121067 113.166280
CG 96.515128 68.981447 112.933531
CG 111.526797 47.611698 112.182726
CG 6.093347 50.401117 116.930883
CG 119.287897 64.098870 4.970419
CG 115.885127 44.379916 99.390400
CG 4.079945 32.113233 109.359584
CG 15.595487 42.278823 3.019704
CG 21.190105 33.999592 113.897401
50
frame
CG 69.973743 53.072729 6.311592
CG 64.012394 59.357033 18.175186
CG 63.630682 60.480024 20.404576
CG 64.206523 65.295379 15.503322
CG 58.605189 61.698432 28.228979
CG 55.768118 57.082727 20.574403
CG 61.828700 49.998240 21.214065
CG 63.047891 56.199907 123.174272
CG 64.875737 46.025690 9.447798
CG 58.159190 41.601889 4.039458
CG 63.632276 36.425439 13.701595
CG 60.711820 49.684315 9.111144
CG 65.082874 37.027886 18.499027
CG 55.616178 34.253534 23.535308
CG 64.479886 35.314832 24.658964
CG 64.862921 44.691343 16.230577
CG 62.689141 29.842491 19.417190
CG 55.705869 20.002628 29.367910
CG 60.641043 27.062674 31.497259
CG 61.785237 31.077231 27.073687
CG 64.022599 25.644339 23.711599
CG 65.400930 22.424469 32.057376
CG 65.352933 39.029472 32.696092
CG 67.280874 30.912511 19.578273
CG 72.625859 42.350169 25.255208
CG 69.682334 34.211105 35.229433
CG 64.763052 43.837368 42.859988
CG 74.821574 24.065395 45.353856
CG 88.583555 36.865813 56.739196
CG 97.716888 14.352703 82.982877
CG 124.804071 18.468409 95.501111
CG 7.997337 25.734217 84.889289
CG 10.993605 26.972497 70.809043
CG 11.828567 30.988165 79.755843
CG 19.229227 13.475783 79.017531
CG 21.494479 18.752685 66.182995
CG 18.891885 117.356658 74.551012
CG 48.080134 113.039894 109.711033
CG 60.746165 108.460569 123.882712
CG 80.130013 105.011390 119.892567
CG 80.601441 90.880127 124.577855
CG 104.187331 77.286255 6.797778
CG 117.583959 70.288224 123.024954
CG 120.958345 77.108826 5.775676
CG 117.794396 61.110330 104.066415
CG 115.034954 58.179950 118.773889
CG 121.980273 62.793210 112.507425
CG 114.962232 60.661486 120.014652
CG 119.916912 43.295237 105.651338
CG 6.941004 31.799357 121.206501
50
frame
CG 68.213186 56.495616 16.500812
CG 68.612276 49.585039 9.862728
CG 68.327479 54.300227 16.526869
CG 58.634126 46.581013 22.795712
CG 57.693160 56.420756 12.746544
CG 60.958270 61.282949 15.884825
CG 55.109049 59.683756 0.410472
CG 55.612289 46.611364 27.434581
CG 55.684628 45.565883 6.545610
CG 63.556059 41.531022 13.106369
CG 59.992300 50.352567 10.334154
CG 68.401982 34.079047 17.227226
CG 62.351129 45.918374 20.758799
CG 75.750304 43.416809 27.023163
CG 60.600605 36.408842 28.782000
CG 61.772492 23.615905 42.718363
CG 62.094329 37.267402 37.124363
CG 66.612838 40.421464 23.601194
CG 63.795996 32.288967 22.292814
CG 64.070368 26.463192 20.121924
CG 57.674352 31.713671 22.882520
CG 62.678715 42.574306 10.159371
CG 67.155719 35.422729 6.883388
CG 67.002914 49.670363 24.151726
CG 69.077060 34.887316 24.733243
CG 74.390859 41.354668 38.621611
CG 85.412094 19.075655 55.500664
CG 101.148164 25.019911 84.332095
CG 123.044764 6.275122 108.063960
CG 12.589277 27.040294 94.826837
CG 7.277472 8.451315 87.350559
CG 15.073768 9.590980 95.282331
CG 11.016170 9.710687 87.494473
CG 22.006078 115.035888 63.989616
CG 25.560084 14.361998 63.381324
CG 20.340842 118.043763 67.742306
CG 28.900753 3.395909 69.626130
CG 17.027413 1.047683 65.985589
CG 28.244503 105.015428 70.710182
CG 50.096211 84.626792 102.295572
CG 97.829345 85.422377 0.926840
CG 96.176666 89.308158 2.611391
CG 101.792487 90.259939 3.263843
CG 105.204258 82.947020 120.749625
CG 104.544955 88.301857 12.149143
CG 120.868802 70.287186 105.293050
CG 118.141510 60.531349 1.508298
CG 122.010522 55.920619 117.442934
CG 110.931793 55.337664 115.434265
CG 87.661922 72.630195 108.028421
50
frame
CG 65.415905 48.383267 19.324273
CG 64.450811 50.132896 22.334536
CG 59.617211 45.034504 9.584466
CG 66.914298 52.294804 4.151255
CG 65.735943 46.352016 0.787213
CG 56.258313 38.813759 12.182928
CG 55.958541 47.534605 19.128858
CG 57.747764 51.709245 10.137555
CG 55.862059 56.767862 19.341303
CG 59.462024 50.231196 29.043588
CG 63.283912 43.008970 21.182811
CG 66.769332 46.652758 27.602983
CG 67.395594 39.986522 24.832111
CG 61.958929 31.179968 30.997976
CG 69.741833 41.509248 37.329889
CG 70.750475 45.640647 29.328901
CG 66.107902 34.584696 31.040221
CG 66.524041 33.318384 35.520370
CG 63.241318 41.924556 23.620128
CG 63.857191 50.324529 12.479639
CG 70.476163 47.301245 2.892200
CG 64.429032 44.699391 13.777545
CG 62.392554 39.709828 21.674439
CG 72.197937 35.505666 25.477415
CG 81.469442 26.919427 47.763866
CG 102.248896 21.993562 71.163271
CG 3.657500 15.838783 90.320143
CG 12.072553 25.547916 87.826509
CG 4.382999 11.709667 77.692197
CG 9.919397 3.215312 93.919153
CG 14.328943 7.774618 96.201259
CG 17.629177 116.518872 72.765230
CG 28.030436 109.552866 78.229610
CG 21.177146 116.653118 87.962029
CG 16.838167 103.771240 76.309386
CG 25.532470 111.942097 68.627710
CG 28.835128 115.400801 63.815507
CG 37.442889 91.422727 62.378343
CG 59.079875 104.016368 76.578578
CG 46.415000 113.742718 71.781921
CG 33.703387 104.544818 69.665579
CG 56.021690 94.893569 92.177956
CG 78.501466 97.856589 0.842085
CG 92.152646 87.732230 117.718855
CG 108.415443 81.484119 3.122646
CG 102.243468 86.482903 17.569327
CG 96.499682 81.895220 121.336087
CG 89.480380 81.733341 105.714100
CG 86.409946 94.075883 123.591721
CG 104.685132 77.231713 114.374158
50
frame
CG 57.234159 40.232409 15.472091
CG 59.934176 46.449123 9.025023
CG 65.995037 45.680089 9.538199
CG 60.086439 39.182741 8.318900
CG 57.356422 36.422813 19.700479
CG 65.124247 46.106945 0.286072
CG 66.527943 39.198711 16.430928
CG 60.084032 45.965235 17.137990
CG 65.958551 42.020805 33.526587
CG 59.851912 54.759272 19.638813
CG 63.431470 48.453846 40.879991
CG 54.419524 46.686217 35.723806
CG 67.061476 38.206883 40.992120
CG 64.971319 51.487068 30.594323
CG 70.112435 37.460314 23.524999
CG 66.733466 40.498332 24.758886
CG 72.950472 48.879940 22.379202
CG 66.074060 54.047885 14.832015
CG 72.693341 50.879669 16.213342
CG 69.114724 48.783977 25.856260
CG 65.867800 50.669570 28.641526
CG 76.187573 39.356345 30.311024
CG 89.420589 39.595274 46.954525
CG 101.160411 15.087923 66.389575
CG 0.112489 24.314645 83.472577
CG 9.076286 14.516522 75.200317
CG 123.552061 26.243278 67.067139
CG 5.526492 119.216329 73.848327
CG 20.840985 18.464613 79.214188
CG 14.716211 117.773836 64.165763
CG 23.541047 108.618932 64.324665
CG 19.454517 112.335570 90.724880
CG 16.282748 107.349794 82.917695
CG 22.347439 106.497907 75.316223
CG 34.137523 91.166463 82.284724
CG 38.430014 91.532870 82.494444
CG 45.430066 72.660931 81.828687
CG 58.934266 108.010451 81.026562
CG 29.720196 109.225844 61.793071
CG 45.907492 103.144976 58.096964
CG 44.780371 113.995871 74.771469
CG 42.566386 113.995794 69.577064
CG 39.523866 92.856416 59.805738
CG 53.478038 100.340124 115.109334
CG 60.663216 94.142839 105.447023
CG 62.073149 98.341420 113.621257
CG 75.955955 113.742139 123.553040
CG 82.788688 113.379418 21.338595
CG 94.337726 97.500259 113.277222
CG 86.193532 106.072408 0.816184
50
frame
CG 59.402182 43.582818 123.154844
CG 55.644487 28.801641 4.496487
CG 52.883008 33.030512 18.528192
CG 59.031268 37.709609 16.712162
CG 66.996982 43.675210 11.821142
CG 64.214824 39.255868 30.178765
CG 64.733623 40.779070 18.773145
CG 72.206253 39.112588 27.029687
CG 66.371422 39.467508 20.949950
CG 64.137099 33.430068 39.973478
CG 60.861763 45.167526 36.385238
CG 68.310103 49.758155 32.766128
CG 57.193708 57.026239 31.512946
CG 66.726851 45.762995 31.552225
CG 62.813333 54.417391 25.948658
CG 67.710864 55.464064 16.721568
CG 68.474309 56.214597 9.040270
CG 75.983302 54.965442 16.341207
CG 72.012569 55.514468 29.265532
CG 81.273974 44.365651 34.396491
CG 95.344540 35.176265 62.186555
CG 108.777734 28.814140 82.518270
CG 2.846295 21.716967 87.119464
CG 14.625693 34.687251 81.830675
CG 4.348814 21.709658 60.783235
CG 0.559933 8.760022 67.837173
CG 17.136315 1.182971 69.480152
CG 13.134761 6.566740 53.512905
CG 10.652945 102.086604 53.303475
CG 22.247808 116.727177 69.669891
CG 16.504736 115.472735 72.040023
CG 22.790832 104.509997 59.781454
CG 29.491354 96.460820 72.094223
CG 39.244260 77.627904 84.497667
CG 44.640028 91.213490 85.008483
CG 51.221040 88.590856 86.887281
CG 43.160402 104.763273 82.116744
CG 30.053263 91.504556 75.132959
CG 47.101495 86.517776 81.679100
CG 42.210180 105.581263 83.002122
CG 45.613017 96.825057 57.718795
CG 40.423683 102.090947 73.700770
CG 30.836700 120.063046 75.067695
CG 11.944358 118.394441 43.630068
CG 6.969903 5.345790 73.057885
CG 38.120454 1.450603 99.414855
CG 51.614505 109.925749 110.903810
CG 63.823320 117.865053 113.131817
CG 69.038354 4.978578 16.452915
CG 72.263692 7.439889 14.111253
50
frame
CG 52.056131 19.867897 7.661966
CG 57.802891 39.258286 9.761605
CG 60.852462 36.608148 124.542933
CG 61.196891 33.302793 22.124542
CG 59.033472 34.077832 26.473180
CG 65.595179 33.513338 30.023133
CG 68.695319 40.375291 31.564799
CG 63.841501 30.957577 38.973579
CG 63.893078 39.807322 33.489060
CG 75.053723 40.919210 30.422573
CG 67.723757 41.538297 15.604356
CG 67.204211 39.862864 32.119583
CG 67.286135 52.590503 21.340311
CG 62.180296 60.745641 18.514848
CG 63.205516 69.284734 19.310316
CG 70.539680 63.802495 22.810557
CG 68.204987 57.620073 35.470529
CG 79.293730 46.756619 41.702080
CG 97.475980 36.394645 54.625828
CG 116.484479 36.124873 79.418592
CG 9.352013 28.234519 82.112516
CG 18.670287 35.080279 81.568392
CG 8.793066 24.849697 75.807990
CG 4.507012 14.720686 74.496277
CG 17.648205 3.306273 77.893112
CG 22.265866 18.909871 58.368772
CG 12.173062 108.783369 48.077975
CG 18.587893 118.115945 66.039076
CG 16.461046 114.152017 62.659379
CG 15.212636 107.950899 51.223026
CG 23.925491 92.463926 58.830235
CG 38.593868 86.097127 67.657528
CG 47.103419 90.732109 71.570421
CG 48.250045 100.673408 70.209893
CG 38.704087 98.018133 72.651796
CG 30.115509 91.348407 74.907898
CG 41.315854 96.542664 83.041336
CG 43.538445 87.253511 88.160630
CG 49.034289 98.379094 82.744511
CG 31.302136 84.269042 80.961597
CG 25.270262 98.521346 90.363583
CG 14.164810 111.826772 57.858571
CG 14.775322 2.233331 66.994215
CG 26.530947 7.836236 74.341949
CG 32.759656 6.361179 72.988534
CG 9.040377 11.362743 52.305842
CG 4.958147 25.926081 82.908073
CG 21.526038 18.970003 98.213764
CG 27.541501 19.925812 124.279252
CG 43.981630 15.298121 3.029319
50
frame
CG 60.009366 35.051189 16.043078
CG 57.094333 20.102188 17.759780
CG 59.875751 24.109153 27.151953
CG 62.497767 33.916541 13.784290
CG 63.886311 29.789589 25.441718
CG 60.035296 32.048166 25.710029
CG 58.552643 25.512352 43.194704
CG 66.483727 43.118005 27.061670
CG 73.656250 36.758935 33.199126
CG 61.239278 42.651636 20.172171
CG 73.966127 44.500064 30.618948
CG 67.357390 56.677738 5.426387
CG 73.318983 49.222814 12.605642
CG 71.943294 60.431476 21.884583
CG 76.384608 49.418515 31.723124
CG 72.974568 52.373598 48.314784
CG 99.235385 46.890193 65.187458
CG 111.771768 43.574114 86.425119
CG 6.109765 35.218788 90.894345
CG 14.074787 31.783654 81.683178
CG 9.347771 32.842209 69.646509
CG 7.822222 15.400552 66.011947
CG 22.998911 16.400469 69.668087
CG 26.441046 8.010097 60.773329
CG 17.162648 2.564925 60.319053
CG 19.191700 104.584361 72.899801
CG 21.702832 9.954107 75.595769
CG 20.447448 106.720758 53.708992
CG 29.264836 107.163122 56.062839
CG 35.690547 84.809082 66.623034
CG 47.683734 92.772598 59.628054
CG 39.120789 103.585824 63.914786
CG 32.599362 96.777393 58.108997
CG 27.937623 99.559845 59.609965
CG 41.200565 93.634599 67.882747
CG 45.518830 104.698434 72.222153
CG 37.626881 81.812149 73.202414
CG 37.263349 98.048680 79.272809
CG 9.356492 97.631594 85.920799
CG 22.099265 106.727794 71.491855
CG 14.760717 122.718993 78.109101
CG 21.760958 119.271752 96.115791
CG 25.486162 107.977386 78.387932
CG 14.780347 3.901616 78.606370
CG 8.086912 19.979167 68.652548
CG 14.173246 28.383246 90.594878
CG 12.561660 34.217391 74.954806
CG 110.659724 38.694937 78.350463
CG 109.305192 31.460471 58.417244
CG 96.203170 33.098778 79.184667
50
frame
CG 64.617086 23.371607 35.134250
CG 65.881373 31.708650 27.532471
CG 61.700305 28.421493 32.159397
CG 57.540333 15.333339 33.851753
CG 59.014004 23.391831 30.014459
CG 63.601730 34.189702 25.064564
CG 67.582713 37.651637 10.980695
CG 61.512013 33.221561 21.292304
CG 60.239998 40.078448 22.224457
CG 69.657313 50.701406 18.891024
CG 67.908806 52.540249 15.358174
CG 75.352209 52.123102 25.248199
CG 76.698694 51.832884 37.388945
CG 87.444495 35.889016 40.350559
CG 104.054235 34.914464 62.601458
CG 0.332069 33.011556 82.998465
CG 6.327396 30.533144 87.580943
CG 12.486790 34.968924 82.491994
CG 5.643262 42.174512 77.528330
CG 1.963893 26.608256 69.776351
CG 16.743696 16.553771 76.601222
CG 23.246279 12.492826 64.347328
CG 16.327682 1.746609 53.438046
CG 21.173428 117.405507 66.746619
CG 28.870224 6.013723 65.647292
CG 23.784473 118.031889 57.787907
CG 34.380317 100.391088 63.584840
CG 40.317280 94.960879 77.289590
CG 47.714557 96.876819 73.263711
CG 48.824149 113.736639 62.387796
CG 31.301252 110.669212 62.475861
CG 30.138066 95.905142 53.001648
CG 37.290001 102.386894 59.665398
CG 40.500852 96.247453 66.315702
CG 29.494004 94.368083 59.510453
CG 29.458732 90.531268 63.900529
CG 16.934311 112.820728 68.492987
CG 9.115424 114.313233 58.708855
CG 20.728771 112.789089 63.992541
CG 16.355570 6.893691 95.995597
CG 18.508989 107.068100 76.985617
CG 19.400585 121.685548 81.922446
CG 7.269422 21.553170 92.637545
CG 8.839906 10.980690 96.909680
CG 2.950881 13.616238 96.696029
CG 118.332080 27.879589 86.956714
CG 103.784510 24.995306 61.859328
CG 98.257202 37.727873 54.479978
CG 75.673375 49.821681 43.189122
CG 58.447603 53.422516 4.960655
50
frame
CG 67.441823 24.596883 42.399596
CG 64.245231 19.310869 53.422985
CG 64.418663 20.990039 35.122715
CG 67.437459 36.427998 37.590185
CG 64.732671 33.965359 20.863857
CG 61.096192 19.501351 23.827009
CG 59.474255 36.509793 16.680782
CG 66.449824 42.510823 12.127520
CG 65.573295 52.906708 123.023363
CG 71.401468 41.404616 25.338904
CG 69.724925 44.762854 31.506004
CG 86.984858 30.971467 58.424417
CG 104.524156 32.350680 64.315463
CG 2.471152 29.964396 90.545870
CG 9.416760 31.363547 89.225400
CG 20.350480 20.724427 72.690100
CG 11.935800 28.694078 70.900971
CG 11.612721 18.127293 66.075367
CG 16.058760 5.893422 66.953869
CG 23.327989 17.226923 70.288024
CG 12.340072 10.236825 58.060270
CG 14.075253 5.707435 70.816257
CG 23.634364 2.761486 77.035555
CG 22.052593 3.029002 58.694364
CG 30.376612 92.337208 59.503654
CG 48.392255 111.560341 70.675070
CG 49.599731 95.574883 63.797155
CG 52.105076 123.331442 64.349349
CG 36.909160 109.356658 67.962792
CG 29.848959 103.976247 67.012725
CG 40.987346 103.271336 68.019272
CG 47.424904 111.452577 69.888352
CG 31.142319 101.358159 64.156536
CG 26.545939 96.331658 55.339497
CG 17.096196 115.524836 62.475609
CG 0.298946 115.207285 53.675783
CG 13.036881 120.936101 51.057421
CG 14.206439 120.749004 77.754644
CG 21.049701 7.673278 70.167958
CG 10.027512 115.467636 55.866616
CG 12.550231 22.220806 89.418069
CG 123.480771 22.438963 89.230789
CG 0.140372 8.597110 94.580537
CG 117.475236 24.191016 87.291007
CG 104.889661 27.153145 83.737990
CG 86.469581 16.535056 53.074302
CG 68.876497 35.398871 64.835757
CG 62.608899 38.920846 16.769457
CG 59.956368 45.446066 9.240157
CG 82.445982 51.602235 27.410479
50
frame
CG 64.438846 21.038177 45.690925
CG 67.216041 29.307516 33.920212
CG 66.187381 30.441135 38.292164
CG 62.309506 19.458281 31.937440
CG 62.731845 27.355723 31.196918
CG 65.940082 43.705550 21.172402
CG 67.093634 38.035765 14.744090
CG 64.384855 35.091008 20.262978
CG 68.390230 34.674157 33.008664
CG 75.257590 40.978349 29.558740
CG 89.112620 37.567129 39.582017
CG 98.009145 39.647068 51.031239
CG 104.228119 35.265588 64.034347
CG 112.029602 29.124822 60.322019
CG 122.598320 26.382527 66.366873
CG 3.072147 28.015756 79.271839
CG 14.368860 16.606960 76.321092
CG 19.229977 18.346592 72.237646
CG 14.540342 22.272478 66.585949
CG 10.928024 8.460640 65.085718
CG 21.370713 7.122463 74.740320
CG 23.253898 6.211249 63.787078
CG 21.311205 118.293729 57.467811
CG 32.341745 112.318456 72.203323
CG 37.405616 124.713843 70.626646
CG 33.569823 113.398405 60.240747
CG 35.823898 113.582987 65.616044
CG 36.389542 98.427540 67.927147
CG 45.801143 105.458018 65.308052
CG 49.306175 113.068371 67.249640
CG 34.632065 107.888083 66.138197
CG 25.697713 99.120977 61.466838
CG 30.722483 109.652666 63.330383
CG 23.376911 116.532278 64.604572
CG 20.379514 107.416073 56.582189
CG 25.393709 112.653909 65.821834
CG 14.718229 119.401270 69.980834
CG 9.948808 122.076687 53.133005
CG 7.744506 1.262320 69.363194
CG 10.395541 17.317293 88.972133
CG 5.420195 2.992300 74.656014
CG 4.630052 7.654854 76.601579
CG 117.749539 26.366347 79.750948
CG 104.950538 18.151869 74.970913
CG 95.994724 20.923359 68.838572
CG 89.830210 35.953941 62.127443
CG 86.096982 32.400543 36.848250
CG 83.090415 36.325978 49.319215
CG 79.220889 41.677594 44.493202
CG 60.088391 41.412415 15.430430
50
frame
CG 66.062772 34.702697 26.417432
CG 62.315905 23.167914 29.226261
CG 62.748090 25.706845 33.952657
CG 65.991141 38.242247 23.400863
CG 68.081336 36.201936 29.504920
CG 66.999240 30.794188 31.546226
CG 71.345038 29.201048 47.253158
CG 77.635845 37.422655 43.656199
CG 90.323118 26.034767 53.219387
CG 94.031804 29.485403 52.214770
CG 102.033572 28.341524 60.782212
CG 101.095538 36.250560 36.189345
CG 105.961675 32.543039 36.419580
CG 99.680317 35.660529 40.082910
CG 106.623076 23.508180 50.882387
CG 111.846593 23.038751 56.353658
CG 122.419278 22.923896 64.405563
CG 2.300893 19.102697 76.627840
CG 17.567206 13.371827 81.010124
CG 22.061241 10.719099 70.218788
CG 22.534328 4.280513 63.152542
CG 29.019225 115.389304 67.207190
CG 37.254489 2.171219 70.747512
CG 32.999631 122.388970 62.540897
CG 25.607979 4.981907 63.479290
CG 22.831548 109.924226 71.700073
CG 30.148413 0.688594 70.035888
CG 31.722637 110.283218 63.272189
CG 33.123365 109.726293 64.787644
CG 29.840405 95.839498 61.543760
CG 34.742123 110.023405 60.204667
CG 27.783188 119.873927 62.541423
CG 20.856147 114.443689 60.462064
CG 26.020946 113.603189 68.270916
CG 30.480474 117.573515 73.642918
CG 28.484074 121.313150 66.457157
CG 19.108531 115.462786 70.882848
CG 18.769596 5.501560 81.988910
CG 2.087425 121.644570 74.870596
CG 0.478697 6.110141 67.860252
CG 115.145482 9.091023 64.436363
CG 113.014093 15.084664 69.209234
CG 102.102789 10.844925 48.340791
CG 101.847847 22.410401 48.479405
CG 99.186290 32.751143 36.949330
CG 102.495574 33.439701 61.300974
CG 104.813121 30.822012 57.553925
CG 90.773281 35.876550 57.518738
CG 84.633341 27.393661 45.823437
CG 83.693621 26.193480 69.594615
50
frame
CG 60.540854 27.802562 16.170154
CG 65.441804 44.319454 20.016908
CG 67.532231 41.384819 11.987091
CG 68.059688 32.642802 36.742399
CG 71.074405 29.827378 42.751545
CG 80.401186 27.553669 55.675800
CG 89.989205 28.944829 59.367161
CG 99.996978 17.927723 71.850102
CG 101.103901 31.713870 63.089235
CG 106.939548 26.029181 59.499025
CG 100.556743 27.379498 37.673166
CG 100.574543 17.934782 52.671486
CG 98.777579 22.938941 41.948418
CG 107.889635 22.749333 38.068725
CG 102.729089 33.729883 34.551078
CG 104.176363 24.318893 38.377608
CG 105.747071 21.291741 54.258042
CG 118.654858 14.260312 52.815951
CG 1.732750 4.158213 58.127340
CG 20.683297 3.646874 78.692203
CG 31.695078 3.591199 76.569538
CG 31.534330 12.035550 70.760346
CG 24.764449 4.209606 67.648771
CG 20.685248 2.630047 68.472284
CG 28.372551 110.680172 69.951429
CG 33.417209 10.583074 64.703508
CG 21.017170 109.471711 61.713235
CG 19.197850 123.415715 67.074103
CG 14.580978 119.041778 62.762336
CG 13.682789 1.213976 59.792621
CG 16.376393 113.319874 61.398119
CG 31.153782 110.767766 66.015998
CG 35.210803 119.336421 72.876414
CG 31.386925 122.389312 65.162836
CG 21.004971 1.190443 73.009697
CG 14.259237 124.839973 85.499590
CG 22.234165 5.290148 78.481258
CG 10.809119 119.383869 77.283581
CG 9.185141 8.619194 68.006789
CG 114.295787 120.438736 56.115384
CG 106.041381 10.862513 54.433708
CG 93.190563 16.279357 30.312701
CG 102.224944 19.670908 36.349145
CG 108.216796 27.560055 42.734492
CG 111.748014 21.528864 53.236933
CG 103.615464 19.189582 31.113442
CG 93.857731 30.019579 58.526984
CG 105.959074 18.075659 68.981264
CG 108.600910 19.514821 91.166741
CG 117.801755 20.846379 83.733144
50
frame
CG 67.370344 52.359679 11.249814
CG 66.614455 33.999777 16.622787
CG 70.148731 33.572505 37.826968
CG 80.568336 32.800313 42.128045
CG 90.887456 31.444030 50.645151
CG 100.200980 26.001913 67.862147
CG 102.822925 24.658438 63.808822
CG 104.867565 26.771762 60.111601
CG 103.174654 19.762666 53.221256
CG 100.605470 15.762201 57.511441
CG 102.662443 18.509889 58.915324
CG 107.929050 19.651112 49.581897
CG 103.577295 21.216608 46.217242
CG 100.017974 14.381281 48.462176
CG 104.052036 12.212613 45.194795
CG 111.718410 18.346336 40.282409
CG 114.098235 11.698662 26.163142
CG 119.537191 8.445724 41.266490
CG 123.268893 15.160828 51.678897
CG 123.428661 12.331942 47.062691
CG 2.774182 9.659177 64.861548
CG 11.303146 8.084897 76.938193
CG 20.992389 122.900760 74.595754
CG 31.858580 8.668108 74.293663
CG 20.995483 5.256467 65.687868
CG 13.022642 118.420888 62.929369
CG 17.200599 1.235978 64.823682
CG 12.129617 8.658206 59.304802
CG 8.535447 0.799575 60.552157
CG 18.989126 5.182641 71.550295
CG 18.471941 7.802428 74.432214
CG 13.319579 4.281891 67.120312
CG 17.326530 123.531551 69.806854
CG 17.823982 0.576553 86.048237
CG 23.444050 2.002621 77.473021
CG 18.752403 1.826030 70.035559
CG 1.693767 8.293664 72.832591
CG 117.628273 4.240576 54.716709
CG 116.161330 5.929331 54.718741
CG 112.568422 18.105883 46.722869
CG 116.335240 11.895734 31.892348
CG 118.286428 9.953289 42.592983
CG 112.021400 22.754969 51.103656
CG 97.912340 9.375841 27.421921
CG 96.382285 15.514845 44.872404
CG 109.100099 16.464748 69.346086
CG 121.982148 3.062531 70.888155
CG 0.000146 10.881011 70.744701
CG 6.768866 19.402879 84.589255
CG 2.390792 12.699686 89.510789
50
frame
CG 77.651556 36.542236 39.719405
CG 83.652949 44.288424 40.696114
CG 92.711012 37.857923 46.385172
CG 98.100816 30.564120 48.569208
CG 102.521333 27.887961 59.390881
CG 102.564437 32.116495 39.727081
CG 103.637103 23.510453 48.392034
CG 99.488663 21.880550 47.793402
CG 104.294755 12.821274 61.282427
CG 105.056003 21.320152 49.521598
CG 107.520734 11.876423 60.489430
CG 98.721759 14.913031 54.412898
CG 109.316787 5.653693 62.109327
CG 111.283206 14.499788 49.901100
CG 116.410795 1.737451 43.270688
CG 114.318467 122.656764 46.337546
CG 108.381318 66.028676 72.610716
CG 116.012340 19.142098 35.721536
CG 114.911333 14.617896 31.298032
CG 110.890484 13.629645 44.265689
CG 113.372557 11.654220 45.401972
CG 121.259246 2.808938 47.933529
CG 0.826033 17.164788 64.149449
CG 123.438137 120.621882 66.785071
CG 9.709311 13.748359 70.338533
CG 11.733179 9.307449 70.279699
CG 7.696702 22.009775 64.115252
CG 13.445058 122.743385 69.308659
CG 24.139295 18.322807 76.723357
CG 9.526493 8.108348 66.741468
CG 9.666739 12.193683 69.366484
CG 7.897162 19.207680 89.868469
CG 2.161249 16.623121 82.134055
CG 2.292813 8.930329 66.818376
CG 120.686103 4.185627 69.168401
CG 119.222893 7.100017 56.905247
CG 8.083791 66.548253 21.734731
CG 122.396344 23.970056 46.246246
CG 108.971806 14.594299 35.435985
CG 124.074333 15.522275 40.317036
CG 120.344803 17.241161 53.931891
CG 117.961939 16.348320 48.692412
CG 110.206063 123.126478 35.381235
CG 121.856010 5.939151 79.406066
CG 124.004711 1.890608 65.353950
CG 121.821397 124.028833 68.215452
CG 6.602612 9.263787 70.643404
CG 7.915138 10.283701 89.941597
CG 10.798242 120.107115 64.600009
CG 14.166325 9.411537 70.387509
50
frame
CG 110.454268 29.909301 76.531114
CG 110.861969 30.419254 74.315260
CG 109.299566 33.458769 55.585066
CG 105.962104 40.702144 46.702298
CG 102.861752 33.285965 31.633323
CG 99.518466 21.772678 42.466407
CG 100.557224 22.645713 43.761371
CG 106.292700 18.274859 42.629793
CG 103.708384 24.377520 42.777417
CG 103.252454 11.306493 57.567889
CG 104.736663 10.123378 50.807091
CG 115.634261 5.450120 59.924027
CG 113.787622 2.170393 49.959830
CG 116.710116 112.483228 59.991524
CG 109.027954 118.249598 84.031659
CG 95.814189 116.482709 84.847532
CG 98.569895 7.545402 64.627742
CG 86.449231 14.654313 87.738157
CG 96.926892 16.179868 67.134732
CG 113.299376 12.623107 39.255831
CG 113.343254 14.869399 32.518686
CG 100.311076 15.451745 37.629045
CG 99.106347 10.340900 36.187483
CG 104.223568 23.168733 45.794549
CG 110.035032 14.362271 61.265202
CG 124.487490 19.514487 71.149500
CG 14.587856 9.593709 82.606346
CG 12.219590 29.139883 79.567141
CG 1.754780 16.737200 71.223369
CG 8.433945 22.154268 87.050383
CG 3.477237 22.610403 87.204498
CG 123.128914 12.562827 61.797189
CG 116.243640 18.720850 66.683020
CG 108.596049 26.467395 58.503152
CG 113.713519 28.876009 23.774691
CG 1.929487 31.098775 6.670344
CG 121.771794 92.532289 19.240213
CG 16.087378 30.964194 2.663151
CG 21.360960 37.773716 27.872932
CG 120.603090 19.062907 45.022702
CG 111.910008 6.304894 43.699400
CG 121.449990 3.457307 67.543642
CG 12.640617 4.645704 86.717543
CG 14.736791 1.278543 68.587096
CG 20.438280 119.611820 78.307295
CG 23.601901 0.370346 82.299329
CG 9.161642 120.107658 72.556032
CG 12.848175 116.728568 52.050370
CG 12.312243 5.870292 69.542195
CG 15.482596 115.059133 60.205264
50
frame
CG 17.144391 28.160369 88.783507
CG 7.019824 24.701028 75.545637
CG 120.084182 26.990133 68.956577
CG 113.186697 18.925331 61.275731
CG 107.280012 27.015941 50.298832
CG 109.624334 30.184161 45.681608
CG 105.142696 27.690301 31.491358
CG 101.425249 19.480295 47.943125
CG 104.156659 11.626921 40.672225
CG 114.235868 7.856785 42.673966
CG 114.007045 8.873103 44.567350
CG 114.927004 114.689432 54.929408
CG 106.939804 117.202175 78.074294
CG 97.341019 115.307656 93.344420
CG 92.209501 111.310359 73.020351
CG 96.276672 104.814700 89.337099
CG 93.070995 63.738765 87.060617
CG 100.743912 19.989892 73.567442
CG 94.630696 19.459953 72.501436
CG 75.970687 19.065648 79.582546
CG 80.590568 16.726529 63.166592
CG 97.814212 28.643524 39.573589
CG 98.417050 20.343061 34.949560
CG 103.121768 28.508118 43.085152
CG 105.062050 18.489177 45.895448
CG 103.963378 28.870633 56.262885
CG 102.577552 24.406362 66.531879
CG 115.073096 29.698111 84.052940
CG 121.893327 22.954165 94.982175
CG 120.143489 29.670939 72.732740
CG 111.393783 22.342264 61.467722
CG 108.803798 33.529475 59.076294
CG 115.913225 33.825142 22.622192
CG 123.860230 38.663232 2.203829
CG 123.824079 60.606010 16.212667
CG 124.106782 69.691239 17.008812
CG 5.994199 81.916432 22.910741
CG 119.993994 22.262003 22.393988
CG 121.112293 18.481323 24.386356
CG 18.546986 24.729637 30.018933
CG 37.556630 24.467654 61.653662
CG 22.716141 5.582859 64.458878
CG 19.835756 4.709614 76.459077
CG 22.600156 120.306647 76.443709
CG 22.910151 2.551070 84.010265
CG 24.180841 117.056005 57.925792
CG 33.241029 114.073622 68.680163
CG 25.595124 112.257069 64.705802
CG 17.269563 107.480280 58.463840
CG 10.193842 116.625889 56.576617
50
frame
CG 14.519365 19.986950 64.589996
CG 17.416214 21.005053 75.225305
CG 16.084781 16.136122 81.321687
CG 9.161863 19.374619 73.590237
CG 1.125497 17.138687 76.203713
CG 114.131555 17.367610 58.671843
CG 113.575833 14.757699 60.401974
CG 116.599078 19.746326 35.690119
CG 118.207074 9.527486 43.689860
CG 109.407164 2.193166 44.006758
CG 107.735999 111.255605 70.790858
CG 92.194812 1.256767 74.539479
CG 93.305820 112.868330 72.447405
CG 93.235001 111.167569 70.744840
CG 95.649518 107.612613 90.217130
CG 98.165858 115.749439 71.377030
CG 91.864909 122.133958 84.001575
CG 84.607153 15.745267 78.612087
CG 76.130451 19.443009 82.784277
CG 87.980671 32.034718 70.645400
CG 82.371922 32.930161 76.421192
CG 76.476399 21.894966 86.313367
CG 89.422193 36.342595 77.396284
CG 94.177063 22.196368 51.554862
CG 92.904982 41.441878 46.709587
CG 91.956805 28.655613 53.726915
CG 90.036438 40.868128 56.428497
CG 83.667262 20.808755 49.512253
CG 87.640607 39.045976 47.288106
CG 89.213488 32.423297 53.123486
CG 110.200995 43.427947 29.621208
CG 121.428990 52.715516 8.937087
CG 120.245362 66.933042 16.108829
CG 123.909013 80.805157 25.197138
CG 5.346596 78.132054 18.812148
CG 120.131641 77.634025 26.625500
CG 121.121268 18.056364 18.525571
CG 5.913367 24.886068 50.285220
CG 21.033714 22.444437 52.368986
CG 25.050299 11.734078 52.685208
CG 22.312795 11.555484 45.959411
CG 47.422281 24.423112 46.851766
CG 44.253909 13.156947 44.405352
CG 33.878881 6.379560 63.243337
CG 31.127022 116.855538 50.642482
CG 27.109082 112.420651 72.578648
CG 25.883621 115.124510 60.136400
CG 24.101546 114.759861 68.053741
CG 29.679480 103.613901 55.202764
CG 29.606698 103.384054 63.952908
50
frame
CG 15.750912 10.190908 67.413631
CG 15.644294 11.611553 64.461876
CG 18.969752 13.893706 66.163524
CG 19.316173 15.727828 78.942280
CG 20.367943 7.117683 77.656345
CG 19.103971 4.325853 77.075755
CG 13.046591 2.559335 75.107138
CG 124.457643 118.803809 73.836184
CG 111.899079 121.361563 79.924894
CG 100.019788 2.576643 81.176049
CG 90.411655 1.180518 63.683352
CG 94.817700 112.576034 64.942794
CG 93.917485 113.048379 73.042818
CG 94.941306 118.889734 63.628018
CG 92.799621 115.727606 66.985057
CG 78.872941 111.446589 75.535670
CG 81.821350 70.437032 71.071586
CG 80.627377 28.102853 79.570289
CG 87.008934 29.509549 80.051609
CG 81.703386 18.626197 89.521096
CG 87.127423 31.989317 92.592112
CG 87.056229 37.390555 82.405272
CG 73.601387 36.841317 85.674814
CG 66.434333 41.627562 99.826120
CG 72.653853 38.110631 87.660516
CG 73.878322 34.376576 47.681983
CG 76.343647 36.076932 27.804689
CG 72.717538 51.509497 18.681537
CG 75.120251 47.759925 117.355534
CG 91.542635 57.027313 105.973089
CG 94.016726 79.081132 4.452671
CG 102.937468 80.662304 21.696208
CG 121.435188 87.764635 29.592511
CG 118.630752 83.461803 30.493966
CG 113.962373 70.705794 30.657140
CG 11.626021 67.423393 46.394823
CG 18.563529 108.549001 63.371164
CG 27.764098 21.704277 43.377191
CG 24.618590 15.008300 46.718914
CG 29.031714 23.296709 59.279278
CG 34.027238 14.508674 40.412155
CG 26.382079 4.729607 44.552483
CG 35.207280 4.538572 33.987331
CG 50.375690 10.830497 26.326448
CG 45.256819 3.665581 38.813338
CG 37.365822 3.841460 53.121081
CG 26.335283 109.006151 53.483124
CG 34.261631 101.045602 56.970675
CG 35.944903 114.392054 74.962947
CG 44.005614 101.912495 64.110750
50
frame
CG 19.638430 5.546018 67.444607
CG 19.270896 4.067935 69.060621
CG 18.160071 2.781193 67.579041
CG 26.221882 118.138712 64.039523
CG 28.486597 0.502001 67.965918
CG 28.083088 117.344277 92.373585
CG 15.790481 112.223921 96.137320
CG 2.484181 115.098361 121.904120
CG 111.098645 117.400330 96.564096
CG 109.977911 105.842668 90.874422
CG 103.774953 120.383389 84.696845
CG 100.265303 122.375330 71.869732
CG 91.476964 3.485329 55.804790
CG 81.545398 113.097100 73.848257
CG 75.447731 122.998486 54.947061
CG 83.661237 1.786771 68.204192
CG 82.510715 20.713329 69.523090
CG 83.101499 24.938950 79.727673
CG 86.823682 30.300570 84.280541
CG 83.020194 41.001152 90.867006
CG 76.044140 28.922969 87.662971
CG 70.734973 38.755843 101.799566
CG 71.048495 34.763440 99.157595
CG 69.057292 46.548823 74.184369
CG 55.211068 34.410346 60.260439
CG 51.493453 62.503965 64.197666
CG 57.408825 52.121697 25.738442
CG 81.782622 67.129603 107.892106
CG 87.434572 79.911038 116.777238
CG 84.059427 101.881255 120.134216
CG 87.354535 85.261534 116.904085
CG 89.908665 89.831030 5.444254
CG 85.619928 77.444546 18.371419
CG 114.533773 65.959158 40.802118
CG 15.821689 77.291764 72.593057
CG 18.598387 67.351294 51.224598
CG 23.787923 70.625877 50.017627
CG 27.103878 21.090723 58.027435
CG 32.565430 21.940793 51.790757
CG 30.167924 9.240948 25.521037
CG 34.985269 11.256287 45.241648
CG 34.411648 8.140157 32.323202
CG 34.412150 7.756091 40.069374
CG 25.239409 120.814028 36.909450
CG 33.781904 2.501196 38.406779
CG 52.186018 118.728290 11.519900
CG 62.204698 3.887124 50.542848
CG 52.823355 122.463990 53.229266
CG 45.102747 102.098134 54.475834
CG 37.998282 115.893272 69.288093
50
frame
CG 19.474637 3.712525 68.260437
CG 21.830039 0.533569 66.091911
CG 25.299167 124.240218 68.860976
CG 21.689836 1.278871 80.063468
CG 17.678115 116.991876 86.777269
CG 11.455157 118.536497 86.158189
CG 8.157491 120.672701 89.459151
CG 4.572204 113.889706 81.184693
CG 124.904184 113.501970 95.032036
CG 112.439380 123.344636 92.817562
CG 103.133232 117.733053 79.045316
CG 95.104785 114.749654 78.751399
CG 90.556110 116.628334 77.612636
CG 91.303328 5.204251 62.294896
CG 89.348925 7.816547 71.843516
CG 81.052886 11.408494 70.891702
CG 82.087101 11.448500 73.817899
CG 83.128359 21.178704 76.819405
CG 78.543076 26.974741 80.981311
CG 77.142442 26.864362 87.407509
CG 78.323688 38.364430 93.493261
CG 75.545058 37.362807 80.027527
CG 66.230367 39.609766 72.642980
CG 60.343358 42.315258 79.415743
CG 67.369494 53.486642 62.586727
CG 74.684132 48.679841 26.308594
CG 74.606146 65.016155 26.523757
CG 65.869598 75.810088 34.704167
CG 71.762769 73.710962 9.356980
CG 85.268151 70.471080 122.489198
CG 88.462823 83.463811 8.816038
CG 98.765532 79.261788 18.300107
CG 117.922633 81.203514 31.060747
CG 115.776981 81.969961 31.847652
CG 115.523716 66.056510 26.635452
CG 8.517040 51.211044 51.938291
CG 20.973971 37.871938 57.878160
CG 25.528853 48.723222 40.791193
CG 27.274150 34.477818 42.336446
CG 32.290016 21.394441 53.481654
CG 31.351845 12.514196 37.337824
CG 30.234502 5.948375 39.245980
CG 32.735893 2.969138 35.196893
CG 45.593009 5.767889 30.028548
CG 47.631055 0.527309 36.793878
CG 39.406334 0.462365 56.274199
CG 37.269535 113.701869 38.942011
CG 45.471061 115.154531 44.000586
CG 49.024311 1.010971 58.368826
CG 50.065861 111.324108 52.225122
50
frame
CG 26.346600 120.168699 68.489109
CG 22.726924 124.121261 79.905883
CG 17.160197 119.775757 88.194090
CG 8.698654 121.708626 88.142918
CG 3.317208 122.606982 88.198353
CG 123.187353 122.239628 73.398822
CG 124.696975 118.226883 77.384076
CG 122.206921 1.756017 63.628096
CG 122.720257 123.635528 66.707291
CG 116.421263 119.331874 68.768098
CG 111.955504 114.414090 88.117519
CG 104.502759 3.369438 84.534863
CG 101.807528 1.269380 90.090044
CG 95.753901 9.663932 84.979695
CG 95.766608 8.739612 90.301206
CG 92.969150 20.599301 76.639043
CG 84.951511 16.445597 81.753855
CG 74.840283 12.810680 78.816227
CG 74.134692 17.639017 81.131171
CG 74.367457 22.183738 68.170491
CG 68.800508 32.318323 62.063796
CG 67.491619 34.799228 63.175807
CG 74.924108 53.112155 54.581166
CG 82.773058 46.229713 30.523221
CG 85.001553 64.007087 35.565082
CG 77.367009 61.903023 52.958063
CG 80.083375 70.479320 48.323237
CG 79.807920 53.732876 39.534045
CG 77.424130 64.522029 50.030100
CG 81.140989 57.609902 60.578926
CG 102.864907 63.187532 48.047876
CG 113.139252 64.161775 29.062384
CG 115.316408 69.181689 18.022949
CG 119.206864 59.929200 24.312288
CG 124.151696 45.472577 20.994171
CG 120.230354 56.803808 16.875521
CG 119.734873 38.205243 17.338627
CG 10.590110 44.217292 45.906687
CG 19.429384 33.819931 45.338808
CG 23.823558 43.896943 46.980985
CG 26.924731 27.980538 40.480969
CG 41.568207 19.929532 47.074228
CG 46.079581 8.530003 38.211523
CG 42.742190 6.201460 56.134192
CG 36.576120 119.228992 43.364922
CG 38.381896 123.077937 53.423075
CG 35.709796 123.747888 51.019505
CG 35.720454 118.295834 53.183542
CG 43.129110 118.604406 33.871852
CG 55.056832 2.658756 33.891430
50
frame
CG 18.519343 116.571392 100.918028
CG 13.272100 113.484439 90.947719
CG 3.150663 121.366377 85.520932
CG 0.799950 117.923380 76.491075
CG 122.805590 123.541593 69.048171
CG 122.050849 1.351246 74.706846
CG 115.249218 4.974690 56.528474
CG 113.107437 123.074543 72.670030
CG 108.115299 123.727947 63.081976
CG 115.908983 1.993848 65.999351
CG 118.963085 15.012142 68.452762
CG 119.989168 6.646310 82.447076
CG 114.934184 15.488193 89.988187
CG 108.052685 10.417914 106.797161
CG 96.002633 16.385881 90.397898
CG 90.899134 5.349174 102.368382
CG 86.986792 16.731024 88.738621
CG 84.927244 22.368839 74.192043
CG 75.573895 20.462820 57.915311
CG 65.961289 26.515444 56.333727
CG 72.692191 26.211151 39.498556
CG 82.690925 41.708238 21.333759
CG 86.414841 43.915385 22.753834
CG 85.899432 67.075127 41.159636
CG 83.911923 55.288226 41.865768
CG 90.292574 63.035953 44.234060
CG 86.084015 48.626371 59.692126
CG 96.373728 57.114935 77.576579
CG 111.056685 48.634174 84.798432
CG 112.570822 56.570622 67.701054
CG 101.839416 43.619654 60.139145
CG 101.420261 40.935292 64.016583
CG 106.161493 26.265772 42.770734
CG 117.383613 32.969906 12.998984
CG 119.428500 51.336314 16.090376
CG 121.762228 39.256629 13.906357
CG 0.694215 57.282224 18.392621
CG 116.576851 37.032405 12.709924
CG 122.475332 43.907092 22.746939
CG 16.673943 31.105644 29.655146
CG 35.779036 37.473122 54.730336
CG 31.857069 37.379043 52.268619
CG 31.503775 26.346245 63.358125
CG 31.288299 7.827841 55.264032
CG 35.984378 12.350241 65.407340
CG 38.087595 123.016141 40.541790
CG 45.214363 0.826650 46.926357
CG 47.806759 10.348222 33.626630
CG 41.563110 0.659301 33.984988
CG 26.965421 0.045923 34.527225
50
frame
CG 114.434788 113.449970 104.997606
CG 119.253410 115.339968 98.098970
CG 1.086438 114.802965 80.931498
CG 124.367627 123.027645 74.635980
CG 117.608993 124.195975 63.176500
CG 113.295178 122.257675 62.851902
CG 110.353969 0.818463 71.465202
CG 112.487789 5.639047 63.937709
CG 116.216118 16.305209 70.428023
CG 112.868332 18.286784 81.180565
CG 112.661492 15.594182 72.244748
CG 116.293201 18.803278 80.317882
CG 113.654805 19.079153 78.482025
CG 112.507443 12.759995 83.031884
CG 108.394486 14.342849 99.693504
CG 98.543047 20.370423 90.142479
CG 88.321323 16.427403 72.675853
CG 82.604858 19.064185 72.931562
CG 86.139974 30.211896 51.518293
CG 96.339572 36.341915 25.233134
CG 92.843410 42.336191 23.432566
CG 85.213199 48.145568 35.650200
CG 82.105736 41.193872 32.656033
CG 87.056647 40.636696 34.565704
CG 92.217717 42.104639 51.070304
CG 101.440951 45.821354 65.103730
CG 118.929489 46.996118 75.128721
CG 120.931162 52.747432 72.964668
CG 110.203973 38.644599 63.361800
CG 114.512771 29.046778 77.906327
CG 116.914191 21.553945 77.131915
CG 114.600114 19.627846 50.116911
CG 109.661035 29.770095 56.721346
CG 101.848281 27.094659 62.059097
CG 106.785773 24.917600 35.388016
CG 115.640251 30.222824 19.615507
CG 120.080189 35.594527 17.481132
CG 8.166531 43.233762 7.154873
CG 15.779999 46.751238 20.713791
CG 2.914272 39.206180 28.931450
CG 121.552794 36.216712 32.644400
CG 8.165531 21.979006 47.817823
CG 21.088905 34.903506 64.767432
CG 29.797598 37.880495 49.456087
CG 37.912257 25.926634 48.813402
CG 41.933588 26.541397 51.947560
CG 38.922306 15.798532 35.874403
CG 30.173853 0.603102 31.432194
CG 27.690211 12.265125 44.305693
CG 36.206759 6.671626 36.031424
50
frame
CG 101.646947 115.350191 76.280501
CG 101.513624 120.596551 83.289626
CG 102.753093 119.306000 87.386610
CG 106.027261 117.752790 81.673154
CG 114.038035 117.845525 85.867795
CG 114.040308 4.262041 68.773071
CG 119.326967 8.146151 73.437016
CG 114.618883 19.406630 74.768092
CG 113.607918 16.196313 82.520772
CG 113.504805 21.734158 71.836821
CG 111.352944 20.509385 89.058620
CG 103.054407 23.567223 76.168380
CG 106.385438 13.886606 82.381452
CG 104.922701 29.440941 65.252239
CG 105.314450 20.836454 55.289072
CG 105.461583 25.383218 49.403636
CG 108.625788 30.184020 63.103208
CG 110.720549 35.468526 36.560365
CG 107.959846 37.185094 41.632454
CG 99.669315 40.117957 54.317361
CG 96.648657 45.807329 50.091821
CG 99.770168 31.519802 39.916562
CG 101.380952 43.091017 55.751220
CG 102.309678 24.967494 61.268559
CG 117.392075 34.968198 63.719751
CG 118.758722 26.319574 63.388455
CG 114.347557 34.776991 54.653161
CG 116.109004 10.850585 58.851572
CG 1.698064 23.920296 69.247946
CG 119.727947 15.210654 54.456609
CG 118.372907 25.072287 54.095702
CG 116.434041 19.933243 79.675303
CG 116.718014 17.641515 66.611874
CG 115.808728 19.237192 53.548489
CG 112.277324 15.009730 61.187189
CG 112.713368 30.617639 58.734872
CG 121.834586 14.585158 35.783945
CG 1.015115 31.559831 46.099238
CG 117.013275 22.685221 26.283898
CG 1.640197 39.226376 28.231789
CG 2.609866 36.389435 28.005991
CG 1.822100 47.530904 28.812637
CG 3.674234 32.505796 8.999856
CG 17.215709 38.077469 46.285180
CG 20.952242 41.213040 33.376143
CG 20.642160 38.128332 38.731452
CG 20.137663 35.011547 47.578726
CG 29.335900 31.241373 58.445581
CG 34.774250 15.434390 33.738875
CG 31.042970 16.842844 43.647187
50
frame
CG 90.157789 2.410792 65.368871
CG 89.329846 116.694557 61.353727
CG 88.803045 121.044585 76.232192
CG 93.823832 124.901143 84.359586
CG 100.598328 7.790873 87.550088
CG 111.106505 9.758813 103.707974
CG 112.817412 14.510784 89.374184
CG 117.237281 12.458351 86.811474
CG 112.248686 17.751328 80.014607
CG 106.565911 18.205095 84.348110
CG 104.244639 21.846811 74.591411
CG 105.919068 22.949164 69.711235
CG 100.000454 34.304386 54.192308
CG 99.339961 25.176057 50.967521
CG 105.773299 38.529685 36.439870
CG 117.359287 39.908078 24.517259
CG 123.820273 43.748868 12.478987
CG 122.420873 45.947173 41.697747
CG 118.432965 43.156665 57.245620
CG 114.657338 34.916283 54.857904
CG 117.458619 26.709260 72.044432
CG 118.855749 31.131203 85.247849
CG 5.204041 23.058660 75.855047
CG 10.284531 33.771085 70.859510
CG 120.407449 19.325296 59.688764
CG 118.696817 6.245265 51.918323
CG 122.127098 119.035695 57.782719
CG 120.420329 7.070624 48.339682
CG 117.514425 6.000982 42.486663
CG 122.256851 14.816051 59.990995
CG 122.891727 11.839103 64.039755
CG 121.919848 18.237007 50.243996
CG 121.371654 12.536996 61.193978
CG 3.055313 16.575340 73.944644
CG 7.281974 20.104209 67.365081
CG 1.469498 5.000297 72.125101
CG 111.003005 20.303382 83.414905
CG 101.867882 9.752056 66.054345
CG 113.976355 20.299972 56.067028
CG 120.548435 24.718959 37.851273
CG 3.068146 31.488597 15.386517
CG 9.120672 42.788423 12.049411
CG 5.146420 50.962446 18.790583
CG 114.777698 42.816013 123.453092
CG 112.888159 42.555033 22.665705
CG 2.162313 40.602469 39.817896
CG 17.944936 42.485283 40.232103
CG 20.748482 49.722495 37.727420
CG 22.638367 45.265059 58.337151
CG 26.958750 40.324285 52.425182
50
frame
CG 77.434742 121.490503 61.294571
CG 82.398106 10.987300 71.955759
CG 90.138543 11.893849 64.286876
CG 93.550701 12.847620 80.080894
CG 90.348324 14.740090 85.135555
CG 92.340177 11.250341 90.991906
CG 95.730608 13.367401 103.017959
CG 99.349083 12.243599 103.719192
CG 104.439458 16.603297 87.089104
CG 107.762633 17.316215 77.006016
CG 102.602982 26.981061 50.519699
CG 101.706209 28.355533 51.969389
CG 107.349655 36.928960 34.053059
CG 118.391021 43.074548 24.435852
CG 119.669359 48.805882 20.780626
CG 115.317860 49.474671 38.988606
CG 114.124624 48.314356 42.358258
CG 121.012035 38.414657 41.264276
CG 7.108017 33.300203 42.809614
CG 19.686332 34.247628 73.459569
CG 24.599748 26.353230 78.994666
CG 26.465192 27.894576 80.122338
CG 11.316171 11.803207 77.932211
CG 6.103445 2.410578 72.296488
CG 13.170782 114.839525 68.619924
CG 9.977476 8.304586 60.394201
CG 0.091386 0.835159 46.496236
CG 124.875138 3.525603 54.227413
CG 119.808193 116.430362 55.394347
CG 120.904299 1.740411 43.648889
CG 122.341442 0.171625 47.598125
CG 7.607530 4.887431 57.954880
CG 13.814356 16.767451 64.097418
CG 5.137543 6.680314 67.307727
CG 119.911862 8.565197 83.157278
CG 116.978574 9.743225 80.953455
CG 123.750352 12.798915 78.078390
CG 1.881999 10.758594 66.797037
CG 120.830478 23.864104 68.186701
CG 111.350885 16.565209 50.756520
CG 113.678545 33.001217 48.427173
CG 107.614496 20.339046 17.895832
CG 111.129595 36.519104 21.997099
CG 121.859740 48.020085 19.973304
CG 3.220376 49.774372 18.408667
CG 117.169820 54.835500 2.500825
CG 114.291219 54.775561 27.582782
CG 123.908808 47.234483 39.732453
CG 8.347806 69.069182 49.377984
CG 11.124611 77.405475 54.092682
50
frame
CG 83.091415 23.023321 75.765471
CG 82.376282 15.011831 73.045826
CG 79.554782 17.069117 80.699639
CG 79.930671 21.698644 72.549662
CG 86.711863 14.657148 80.704996
CG 80.841321 18.917513 78.048384
CG 81.793240 14.107761 80.630957
CG 82.523067 20.782248 74.431294
CG 86.720448 19.273702 77.791787
CG 93.001120 27.088285 58.792562
CG 109.394622 28.433737 58.107695
CG 119.071922 41.363804 24.464839
CG 124.014768 38.421619 28.781059
CG 116.196357 52.976346 36.496766
CG 116.297386 43.131769 47.987565
CG 122.248303 41.933041 38.083499
CG 4.719130 35.600948 58.064021
CG 13.214018 37.457875 65.246145
CG 21.474339 33.448667 72.085619
CG 28.181105 25.944497 57.584318
CG 27.278580 23.657551 51.122101
CG 26.547526 122.719198 55.698064
CG 33.567014 2.415825 68.678142
CG 26.617427 119.335272 69.493052
CG 15.535086 6.422763 65.903944
CG 11.630399 112.808499 70.995868
CG 13.911519 124.853126 71.132847
CG 7.335256 116.547062 55.232187
CG 9.730945 5.545747 51.686174
CG 8.310218 112.603171 56.171844
CG 12.334474 123.243882 54.918846
CG 2.939339 118.643766 64.101280
CG 119.224010 114.250423 66.630379
CG 122.181114 3.883312 68.915558
CG 4.413615 4.702775 66.583234
CG 6.729840 17.105450 65.625518
CG 3.937554 7.226033 59.142938
CG 1.914515 25.735114 71.836343
CG 120.549448 13.268958 57.943162
CG 117.916847 21.616085 59.463710
CG 101.554532 14.945630 61.588720
CG 103.521556 33.957375 72.588703
CG 109.987716 26.198045 39.654759
CG 111.461168 32.380141 34.669826
CG 110.167996 48.763411 19.479539
CG 120.707647 56.163575 33.287784
CG 118.787282 71.885004 20.020479
CG 107.855490 90.137418 24.137522
CG 102.128768 78.892320 18.902304
CG 103.589297 76.302232 33.252897
50
frame
CG 84.822764 34.994652 90.625031
CG 80.360702 34.025442 82.429885
CG 78.515058 27.116947 83.924894
CG 72.869351 16.793151 79.894488
CG 66.884903 23.580898 68.005297
CG 74.536550 24.179876 61.862914
CG 75.072091 28.178998 47.369379
CG 78.340862 28.135662 39.995965
CG 86.517348 33.235087 36.754629
CG 97.519159 39.262185 35.320663
CG 103.680646 38.551203 41.926208
CG 109.331112 40.883717 59.743383
CG 113.743811 44.377695 65.197976
CG 0.154563 28.446518 51.057145
CG 9.077826 32.423015 57.498182
CG 15.454614 34.051717 73.315538
CG 24.584445 31.753147 65.706499
CG 28.534919 27.145726 60.567614
CG 24.898553 22.616228 59.173642
CG 18.583573 6.498405 51.394272
CG 27.937986 123.647484 59.753112
CG 29.197653 7.012364 50.169310
CG 28.260202 5.135313 38.177802
CG 33.108286 0.000888 53.956328
CG 32.834603 121.626705 69.426478
CG 26.502023 119.780501 63.936677
CG 22.736793 118.665100 68.358327
CG 24.769720 114.665771 75.573665
CG 26.327083 114.457998 72.335713
CG 18.088283 122.482896 74.129048
CG 4.115451 111.904516 75.991036
CG 124.474124 114.029704 63.537351
CG 3.384544 117.418448 59.328879
CG 5.121294 120.553646 59.015005
CG 3.596139 0.093684 45.733515
CG 5.785264 4.803637 53.001061
CG 1.305945 20.222120 55.596597
CG 117.974279 11.369247 48.818758
CG 114.041036 14.196792 61.716569
CG 114.491732 28.655705 82.550482
CG 122.854888 20.594060 58.582618
CG 120.885320 23.807125 60.326296
CG 103.778884 34.658224 74.518162
CG 99.591395 42.677567 70.886170
CG 102.603943 48.163328 57.863099
CG 98.459384 67.399125 44.714067
CG 97.950996 73.959414 24.559932
CG 99.935884 76.830296 17.110305
CG 89.449672 82.745325 10.995671
CG 75.676682 88.743786 110.794189
50
frame
CG 74.156827 36.759455 88.152764
CG 76.100882 37.347793 98.144951
CG 71.918035 38.721467 75.526459
CG 73.660041 42.004746 69.653176
CG 71.374801 37.199921 53.697817
CG 68.058140 30.865539 38.690812
CG 75.650922 40.263541 27.869018
CG 88.985508 43.773957 24.057524
CG 93.669642 47.584510 14.472858
CG 94.261633 40.614256 42.008324
CG 92.230536 47.160657 44.344277
CG 102.031687 28.677737 62.726842
CG 115.551604 26.254211 67.389128
CG 7.818387 28.503011 97.893977
CG 21.033588 28.428034 83.256493
CG 30.851916 15.812563 69.561957
CG 26.722165 17.046034 60.232807
CG 21.651885 4.166544 59.107087
CG 27.851182 119.873772 47.728191
CG 33.293989 8.406271 59.682239
CG 23.576670 7.508689 44.092529
CG 25.761060 6.643598 51.137641
CG 27.352974 119.743968 63.814933
CG 27.415277 6.548910 45.390518
CG 35.354285 117.147557 38.186345
CG 45.984404 3.086673 60.725152
CG 44.189100 111.630144 68.887536
CG 36.524259 124.048597 80.239198
CG 16.744645 104.688304 93.348789
CG 15.610842 110.317667 82.530925
CG 18.158983 114.503237 73.624687
CG 21.223931 122.104280 70.283051
CG 14.299589 124.285483 57.229701
CG 7.800049 117.503338 42.868594
CG 1.059768 4.096385 54.624059
CG 114.678818 121.086314 41.764104
CG 113.733339 0.594760 49.241879
CG 119.799498 10.424236 62.688387
CG 2.452972 29.367144 61.703597
CG 121.992011 8.884315 39.779029
CG 115.914587 38.589564 81.529223
CG 107.948307 35.720229 76.255397
CG 116.852104 45.539710 74.512391
CG 108.078067 57.553444 68.054622
CG 91.482277 63.851723 78.203540
CG 79.145202 59.000398 50.213122
CG 72.633602 59.701076 50.592284
CG 65.088784 64.153621 10.588338
CG 73.216630 82.167956 116.026258
CG 87.776929 81.595701 0.887297
50
frame
CG 74.245023 38.193128 87.301310
CG 72.377327 38.762759 72.928174
CG 74.133050 37.583984 75.125388
CG 71.866083 34.230285 64.554935
CG 74.453344 38.957693 53.428706
CG 81.994640 44.997810 46.534641
CG 82.919894 40.163952 38.329026
CG 80.410999 38.230726 37.181171
CG 85.043098 39.232349 44.466089
CG 95.058909 40.034292 37.665645
CG 106.415575 32.117033 48.524947
CG 113.867079 38.251310 62.358714
CG 120.227884 35.645848 69.434124
CG 2.409840 24.173239 57.771851
CG 8.244554 18.686066 66.981048
CG 13.183895 19.243535 74.768276
CG 23.690189 9.992459 68.641355
CG 31.585407 12.343861 60.415104
CG 25.789926 14.667199 59.156503
CG 22.116323 2.265291 49.388761
CG 29.804730 124.282641 59.078963
CG 29.239981 2.195594 52.521298
CG 30.206045 5.776272 40.265609
CG 36.103280 121.996746 57.282031
CG 35.694580 124.511918 69.021533
CG 29.752436 118.242806 60.983893
CG 26.955062 119.842623 66.999667
CG 28.171842 111.245820 71.264931
CG 33.869804 120.087261 67.958564
CG 27.494938 119.384230 75.313328
CG 17.134064 116.521215 74.166890
CG 10.584616 114.516358 63.113996
CG 9.746943 119.039059 61.960129
CG 5.447568 0.631726 61.277738
CG 1.321525 121.049194 48.878475
CG 3.094175 5.322868 57.066254
CG 1.017073 13.116501 56.145937
CG 119.324733 9.659347 45.265524
CG 113.295804 11.143613 59.051905
CG 115.454645 33.210796 78.946610
CG 119.058595 28.737064 58.106720
CG 117.273343 38.454738 60.777877
CG 100.933790 48.132745 72.080320
CG 93.881758 48.141414 68.039735
CG 94.210319 51.464975 52.132945
CG 87.783490 62.526705 46.844324
CG 82.947795 70.916182 27.404596
CG 85.177272 73.278327 30.635169
CG 79.921153 67.530325 27.073050
CG 68.787938 72.819155 3.606047
50
frame
CG 71.251786 39.432203 55.303803
CG 71.839668 35.780378 57.766255
CG 75.493681 37.626028 58.763836
CG 81.815380 42.332520 52.789856
CG 86.586199 41.369177 61.178655
CG 84.203670 39.522604 62.893480
CG 84.372996 39.677862 70.624449
CG 89.451204 38.811269 65.857228
CG 96.132940 26.869777 68.772760
CG 101.735935 31.800066 63.669009
CG 112.784422 31.283907 65.332981
CG 120.289339 32.364991 37.109742
CG 123.640001 25.011920 41.556075
CG 119.171292 28.411392 42.902887
CG 121.898687 19.254978 50.858978
CG 2.531942 17.827482 48.540058
CG 6.794379 19.258885 64.031419
CG 12.189180 17.446460 67.866798
CG 24.747825 11.950891 73.333882
CG 29.472607 9.431796 60.987340
CG 30.202206 10.910010 53.490600
CG 33.802316 120.816796 55.702553
CG 37.868258 124.179054 68.382081
CG 30.217901 119.281103 67.165525
CG 21.739799 1.988542 66.557959
CG 18.788716 112.511477 71.136919
CG 23.392340 1.312040 65.696167
CG 22.115902 120.441136 53.742550
CG 25.264009 1.674293 50.607530
CG 23.951649 118.742849 49.413393
CG 24.181884 123.452846 54.953456
CG 13.097246 122.709107 67.005978
CG 4.011643 116.327441 67.551966
CG 6.140566 124.362452 72.406770
CG 10.476117 6.252190 69.382620
CG 9.266573 12.704668 63.843039
CG 1.411302 8.855107 59.177468
CG 123.301477 26.283984 74.240587
CG 118.444277 20.283755 56.718843
CG 112.738083 30.899721 57.948045
CG 99.735841 26.676889 55.654306
CG 98.280010 41.497855 65.020463
CG 97.665871 34.557832 35.529505
CG 97.125993 44.241540 34.951607
CG 92.133729 55.492908 25.451325
CG 100.307872 60.733989 39.852457
CG 102.307531 60.652117 35.431234
CG 91.185904 67.154316 39.850627
CG 79.382378 63.537789 40.806258
CG 78.781810 57.552646 60.408507
50
frame
CG 73.709030 35.422598 29.002233
CG 81.423995 43.447485 37.367329
CG 83.005050 43.170325 37.881594
CG 85.348832 40.492685 61.455482
CG 84.432792 38.433893 70.445449
CG 90.127661 34.596513 77.881227
CG 99.916874 30.497048 84.874417
CG 107.006584 28.100688 94.650792
CG 112.334265 37.593693 81.768221
CG 116.248772 25.909637 73.812651
CG 110.765207 25.151377 49.935723
CG 107.995887 16.166574 57.787355
CG 111.655206 20.504517 39.016928
CG 121.970437 20.235325 38.296791
CG 122.039758 29.136301 32.629597
CG 119.346929 25.355772 43.461483
CG 122.380345 21.778527 46.891027
CG 2.207103 14.526298 53.505929
CG 9.485910 13.335253 52.214281
CG 23.644939 14.786757 77.732440
CG 30.856463 5.108676 80.570891
CG 30.247657 10.918875 80.045672
CG 19.664786 122.584631 77.106026
CG 17.480603 123.468016 70.503123
CG 24.274613 113.823621 63.426794
CG 25.257290 10.311578 57.867090
CG 18.137273 120.994852 49.437552
CG 17.297028 6.314688 51.841770
CG 9.495328 119.936019 52.586346
CG 9.892117 4.758616 46.896030
CG 9.755525 124.407178 47.290060
CG 20.720872 3.193748 55.212333
CG 25.507023 14.793321 65.269396
CG 16.573518 6.582570 65.399800
CG 5.190142 9.684888 80.454699
CG 124.502085 13.016778 83.373150
CG 3.342270 23.755241 79.075813
CG 124.459900 21.847833 65.223938
CG 115.024355 36.686580 66.831837
CG 103.521826 22.345281 47.499524
CG 100.874198 37.570417 45.332288
CG 91.236838 26.948287 17.412430
CG 95.081199 41.564756 24.719574
CG 101.875608 49.958670 24.427354
CG 108.132357 46.028250 32.906511
CG 97.907759 45.871018 20.165178
CG 88.405654 49.209625 48.575866
CG 93.034652 41.485799 62.058345
CG 102.616524 51.671231 73.052383
CG 103.311296 58.068728 73.047102
50
frame
CG 94.516338 48.226307 25.438913
CG 85.938728 38.619080 28.439750
CG 85.415586 36.913107 49.635821
CG 88.572655 34.587218 56.182288
CG 97.797308 31.743467 65.008687
CG 108.142779 30.833631 87.003523
CG 111.995377 32.562484 83.481684
CG 116.141612 27.630311 75.651357
CG 114.766716 20.470852 73.541058
CG 111.027491 21.111441 74.496969
CG 112.758053 19.616470 69.948694
CG 116.163948 21.640079 62.872287
CG 111.531783 23.481938 55.882599
CG 106.656588 18.563689 50.663660
CG 112.876843 17.390370 43.727525
CG 122.646414 20.202969 38.809764
CG 0.518547 20.090668 29.606937
CG 6.497536 22.660430 45.815539
CG 4.817770 17.593620 62.985688
CG 124.585301 9.754525 62.870846
CG 124.395323 8.527340 78.332615
CG 4.562938 6.927689 88.252379
CG 17.428301 7.598815 73.667745
CG 25.213486 14.164179 70.286756
CG 16.228615 8.755187 61.229840
CG 14.027416 124.571034 49.342253
CG 13.513187 124.789319 53.640492
CG 8.809083 3.402500 51.099331
CG 8.020722 7.355870 46.892676
CG 10.741213 7.423263 59.707116
CG 13.639259 14.553813 62.670090
CG 11.284789 16.440899 49.738271
CG 9.842320 12.229017 55.863071
CG 14.193212 23.201121 70.589181
CG 16.570780 26.633689 67.584554
CG 8.138669 22.577242 69.019895
CG 116.337999 28.897739 79.658284
CG 105.906247 20.712203 62.908295
CG 107.783315 25.003976 55.023787
CG 107.084351 34.713175 38.594494
CG 108.265554 36.818540 23.005396
CG 112.863698 42.410158 22.870370
CG 108.494007 43.880892 33.253551
CG 94.572475 28.650778 18.349897
CG 88.834582 34.568385 37.361671
CG 95.558664 32.591318 61.438483
CG 108.779683 32.683978 59.871651
CG 111.193831 42.038473 59.258184
CG 111.520584 39.197117 74.362133
CG 116.550663 36.540674 72.283780
50
frame
CG 96.996730 38.382434 49.743624
CG 104.196371 41.038999 51.781249
CG 108.594579 34.517062 50.267560
CG 110.614023 30.169221 53.714702
CG 113.674162 30.558486 64.882605
CG 112.733391 28.498056 46.768605
CG 113.024532 21.031299 54.941804
CG 110.819811 22.910316 63.333039
CG 111.607061 17.208507 71.097542
CG 115.617675 21.696354 63.384850
CG 115.661983 20.194142 79.412321
CG 109.563920 24.324345 66.702453
CG 114.751458 15.200003 75.540957
CG 117.698814 22.285416 63.122593
CG 116.063395 14.876887 57.847127
CG 117.260390 13.743893 50.558749
CG 122.315406 14.793915 66.343351
CG 117.840796 13.511123 49.807907
CG 115.812284 15.099637 52.626537
CG 113.492635 16.622433 57.904273
CG 115.978141 19.662466 53.454353
CG 120.171264 12.328409 45.956177
CG 121.453527 21.194548 65.848094
CG 122.071509 5.919087 63.771642
CG 8.249472 18.906805 62.763286
CG 7.029954 8.574965 68.353071
CG 6.210707 19.774486 58.458212
CG 9.071103 3.546829 57.546890
CG 17.292999 17.692749 66.137434
CG 11.007545 16.890198 53.220994
CG 7.832588 20.172622 54.088740
CG 3.752554 25.119971 77.702060
CG 3.908045 29.861530 65.765763
CG 1.226540 30.005129 51.860611
CG 120.192305 28.909782 53.251957
CG 119.181661 36.020314 51.681481
CG 120.458748 22.134904 33.132715
CG 118.599299 39.986729 47.291693
CG 110.038522 29.109113 31.593891
CG 116.410380 39.357605 41.031509
CG 115.136659 31.411956 43.023756
CG 109.103325 37.060548 49.099900
CG 101.795785 23.330518 30.610444
CG 108.811655 32.068132 69.257360
CG 109.428009 26.270744 57.768438
CG 110.850061 26.722924 56.665514
CG 111.177516 27.076495 61.979036
CG 118.494386 24.195921 73.087866
CG 122.332479 19.872783 52.573329
CG 118.116185 21.710246 61.461763
50
frame
CG 119.259784 27.589993 77.592924
CG 121.826342 28.094514 74.909189
CG 0.425995 32.863708 62.659595
CG 3.437693 34.079535 48.557021
CG 122.074740 24.663416 30.897362
CG 114.863783 20.016650 40.309713
CG 112.012877 20.106826 44.599220
CG 112.385055 17.036157 42.149629
CG 113.621598 26.659807 51.508635
CG 110.650765 20.625729 67.941902
CG 111.478926 19.198634 60.188425
CG 119.475089 14.501227 76.753523
CG 118.715976 19.639319 69.501228
CG 120.939244 12.401799 76.709819
CG 123.526315 17.262669 88.026942
CG 113.982843 14.353353 85.901875
CG 104.000479 9.533468 69.511068
CG 101.659467 9.231937 71.326948
CG 106.839723 14.776470 52.395756
CG 114.452690 19.526639 37.147121
CG 113.540380 20.964632 36.092742
CG 107.265477 26.380525 41.390781
CG 104.688681 16.884509 35.257650
CG 105.459639 22.558193 46.462219
CG 107.915173 15.642821 63.791087
CG 119.596110 27.000905 67.767569
CG 8.732252 20.860653 76.196785
CG 11.696443 36.811789 74.010090
CG 2.253034 22.921395 62.425186
CG 5.170886 27.191871 75.697729
CG 4.126520 30.720955 73.840400
CG 2.097006 31.111745 48.008424
CG 117.993533 36.492052 54.502205
CG 108.605018 34.134972 55.817408
CG 108.693768 32.662359 33.810699
CG 110.368577 35.393178 22.342495
CG 115.832660 44.657837 20.094535
CG 1.538408 38.639306 15.563390
CG 6.435042 43.147436 35.234392
CG 117.110385 28.430528 46.805274
CG 107.165517 27.751128 54.048256
CG 109.779195 16.959432 70.399626
CG 119.616139 24.390765 89.279935
CG 122.589369 26.838531 67.863718
CG 2.911768 21.193634 68.007396
CG 4.598937 21.284642 69.671748
CG 124.477100 14.148236 58.409801
CG 116.976278 5.711049 47.491695
CG 117.213212 10.995551 59.640299
CG 123.646444 7.508559 49.708399
50
frame
CG 25.761521 22.128070 85.443611
CG 17.372658 20.602279 70.127374
CG 8.558164 17.945927 61.857345
CG 124.335128 15.814151 56.850472
CG 124.221174 23.408844 50.215584
CG 3.305577 24.503055 43.430909
CG 122.298600 26.559014 30.441155
CG 115.874236 24.328690 44.547604
CG 111.803103 15.467387 39.067686
CG 116.834467 15.115778 45.709695
CG 118.786795 20.321089 54.363440
CG 119.123588 14.654821 65.441776
CG 120.508233 14.968745 78.592824
CG 114.854021 12.612908 95.334221
CG 104.442901 10.410922 81.429095
CG 106.973229 10.155408 89.903994
CG 108.926513 17.180717 79.383886
CG 111.213572 21.306453 66.465181
CG 102.996822 15.706862 58.370407
CG 94.755064 16.332792 54.560147
CG 95.156726 16.399124 39.751103
CG 99.881662 22.613289 36.245168
CG 101.276430 24.560970 38.979898
CG 105.825924 37.435175 46.214953
CG 106.786103 30.935896 45.128004
CG 109.174346 37.648330 53.690491
CG 103.918845 32.810163 66.141100
CG 111.580527 37.337902 80.114223
CG 123.126483 43.120140 86.978100
CG 122.826034 46.258822 67.229446
CG 114.463818 39.685365 57.631499
CG 108.885007 38.818380 58.802735
CG 108.926542 30.970279 37.873990
CG 113.588824 38.355303 17.429515
CG 114.302575 49.847939 24.457022
CG 117.461880 40.986786 22.942320
CG 118.678406 46.049297 35.320773
CG 108.632301 31.157733 31.175148
CG 109.793257 32.458388 40.848495
CG 121.887882 25.659234 47.855502
CG 10.945563 28.561647 76.816227
CG 8.431715 25.493992 69.396953
CG 7.106379 23.046379 78.893185
CG 6.403279 4.891852 76.144928
CG 7.013286 14.191137 84.158570
CG 3.450994 4.044524 61.234782
CG 8.784869 3.889092 62.733448
CG 9.755029 8.828380 53.672052
CG 1.201139 123.627130 49.142076
CG 116.511144 122.344475 49.681717
50
frame
CG 29.344742 10.304297 51.181034
CG 28.597666 10.851196 66.847069
CG 23.161270 11.021380 71.200993
CG 18.129941 14.216306 64.964264
CG 9.808342 16.750273 66.651274
CG 124.022463 21.576305 54.909118
CG 1.580291 18.253648 56.197618
CG 5.741969 21.549342 38.461299
CG 5.124150 20.484161 42.590340
CG 123.801100 19.292970 40.742328
CG 120.754312 7.880277 60.836619
CG 111.791786 16.931631 59.952959
CG 104.080548 9.109546 71.329816
CG 103.219293 14.362685 65.315324
CG 108.722824 14.526407 78.392174
CG 109.027174 20.326413 64.901820
CG 106.605060 16.698690 73.898044
CG 98.383683 15.426677 70.735171
CG 98.034629 21.864054 69.810916
CG 97.010725 21.218452 63.663435
CG 91.860254 24.024137 66.676891
CG 92.896637 23.399820 57.545620
CG 99.340618 37.927428 54.323589
CG 100.983154 28.146037 42.211033
CG 100.766810 49.537740 45.999494
CG 94.963722 40.665661 56.720416
CG 98.579362 58.317296 53.509762
CG 94.168940 44.026899 47.580523
CG 89.700423 50.938849 53.757371
CG 89.892007 44.743847 62.040546
CG 102.741749 47.658393 49.668759
CG 108.536883 49.724452 35.476299
CG 112.912913 55.509683 28.370160
CG 116.606637 48.133202 34.253686
CG 118.992604 36.790258 33.175368
CG 112.785133 43.024490 38.191144
CG 106.876138 26.127467 38.053067
CG 116.458376 37.249097 65.748738
CG 122.286457 24.193902 67.904066
CG 2.771393 33.984003 66.382199
CG 6.175189 22.411350 51.169704
CG 19.400979 19.747764 64.120488
CG 20.317858 8.642930 56.141411
CG 15.958703 13.755328 72.685937
CG 10.166442 121.862239 59.545194
CG 13.564926 123.011033 71.913551
CG 6.908654 124.396515 66.877435
CG 3.130589 116.755046 68.422143
CG 8.505318 120.010017 52.539439
CG 13.531502 124.191441 54.634179
50
frame
CG 25.405098 0.384173 53.732999
CG 28.172385 3.585978 45.687348
CG 30.794284 10.428184 53.301264
CG 28.128975 14.872397 68.476364
CG 24.150876 8.403813 67.362021
CG 23.432135 7.528192 69.400870
CG 16.717036 13.536877 68.700325
CG 8.489800 12.549624 64.446503
CG 8.473867 14.899217 68.784374
CG 1.437144 15.854919 66.357680
CG 113.182118 18.440589 49.381835
CG 109.821091 10.317546 51.167751
CG 109.123162 16.412632 46.772400
CG 107.354584 18.182014 42.070204
CG 104.726261 20.370724 49.052156
CG 97.296592 16.870976 57.718900
CG 95.041211 19.309837 59.142973
CG 96.215370 21.729338 68.293216
CG 95.141226 22.328039 76.878531
CG 96.957469 27.477183 78.695246
CG 103.298036 36.979096 77.711226
CG 98.729754 38.353375 76.039581
CG 89.709246 35.371378 69.278284
CG 84.061377 44.483937 71.683630
CG 87.293244 45.594358 63.223021
CG 88.818823 52.102369 35.945584
CG 83.869700 49.680016 34.222003
CG 76.730385 61.471649 36.766807
CG 77.068764 52.602789 16.304773
CG 84.013027 54.262419 11.874792
CG 86.159232 62.022328 26.629641
CG 98.305665 56.568519 35.568945
CG 110.374388 51.705379 49.716485
CG 107.685239 50.017374 54.328324
CG 105.247524 40.421111 50.820763
CG 115.019384 31.634091 69.971024
CG 0.972147 31.228481 75.376209
CG 5.047562 29.884269 61.907373
CG 7.417807 29.960361 56.184681
CG 10.705678 19.005519 70.003453
CG 8.858142 13.648883 59.900603
CG 5.518378 12.240766 55.431814
CG 11.017143 6.507592 48.888698
CG 22.664062 3.860679 43.313569
CG 22.800397 1.026004 52.815048
CG 13.525400 0.354946 66.558616
CG 12.667300 112.415503 59.097270
CG 17.547651 116.678390 63.257073
CG 18.344334 122.696287 79.256790
CG 20.191860 115.290914 70.720786
50
frame
CG 29.351934 4.545795 48.892703
CG 25.545270 3.935404 56.412116
CG 25.773054 124.368811 51.341096
CG 32.234469 119.888056 46.565544
CG 37.952129 7.373224 57.807731
CG 36.353030 6.948319 75.791094
CG 29.583234 2.886799 77.635118
CG 20.162544 4.763120 97.699099
CG 123.539521 8.616071 75.342333
CG 119.222137 7.036231 70.952245
CG 124.020244 18.566037 60.362300
CG 121.859581 22.512277 45.632746
CG 113.998306 24.911612 29.905903
CG 105.196013 16.282288 45.766778
CG 94.642710 18.350176 28.823629
CG 95.811918 21.878121 44.121884
CG 93.964673 25.635108 53.482371
CG 95.515830 29.072059 63.801605
CG 99.645951 34.677528 66.730631
CG 99.350263 39.877368 79.926830
CG 90.918716 33.427884 79.891262
CG 89.374706 46.668548 88.007539
CG 89.725200 49.135491 86.800759
CG 87.076964 57.403879 68.890730
CG 72.482869 41.474566 52.738811
CG 66.725763 57.475208 55.072020
CG 66.139456 47.506203 27.492586
CG 78.829628 54.619232 124.510393
CG 83.252004 64.539078 12.669177
CG 84.593550 72.260036 13.819316
CG 87.233117 54.139492 15.380351
CG 82.629139 54.831138 35.107189
CG 77.388858 46.369956 48.560880
CG 97.221902 38.586270 66.804896
CG 117.725029 46.646210 95.238657
CG 124.682909 38.371101 73.364196
CG 5.386977 41.946781 69.466056
CG 7.974580 16.329926 70.344864
CG 11.756172 17.434277 71.647492
CG 7.492303 9.793334 43.012450
CG 12.332071 13.916011 59.645381
CG 13.927597 2.375436 47.585109
CG 11.746629 8.445208 57.727724
CG 2.242420 121.322552 51.112503
CG 12.606175 1.131204 52.043589
CG 26.828407 118.133116 31.842400
CG 34.559529 3.485945 66.140699
CG 30.056241 123.815973 70.479562
CG 25.705243 107.031567 71.705920
CG 21.385373 115.811011 89.123564
50
frame
CG 25.957351 2.012575 54.426224
CG 30.665614 0.309995 47.203579
CG 33.582036 4.219129 54.640491
CG 30.932319 7.755345 66.289263
CG 27.146092 123.925725 66.649368
CG 24.420404 1.004297 67.444878
CG 18.746755 7.652530 72.048535
CG 13.465938 7.901755 64.268968
CG 16.263403 9.495396 73.494424
CG 8.661446 15.824096 67.509212
CG 118.985112 14.018746 55.726402
CG 112.462192 13.682759 54.933476
CG 109.358589 16.143429 52.203974
CG 107.780831 23.802450 38.342172
CG 106.333402 24.337661 49.850171
CG 99.419103 23.677208 50.025546
CG 98.140292 26.445344 51.170769
CG 97.288653 30.598491 59.387233
CG 93.068150 31.158440 69.123820
CG 91.302874 35.288432 72.317790
CG 95.340607 45.625560 78.119962
CG 91.424755 43.661232 72.215882
CG 82.434703 43.048756 65.398662
CG 76.550674 45.049271 68.279991
CG 80.183025 55.717606 58.497155
CG 82.094228 49.827228 32.722722
CG 80.615382 58.195856 33.216656
CG 74.505294 61.118038 39.141951
CG 76.480937 53.530517 20.490810
CG 80.701036 49.854681 20.679532
CG 80.999776 58.924820 33.776030
CG 91.025686 52.656549 40.159854
CG 105.056336 50.619440 53.581703
CG 103.357389 49.515889 57.259044
CG 103.242244 38.981537 51.256758
CG 114.888497 33.118583 72.171027
CG 124.584139 25.017002 77.812860
CG 4.567212 30.547298 62.866611
CG 6.793017 22.745087 57.412671
CG 12.432122 14.865475 68.487662
CG 10.247202 8.214586 55.540835
CG 6.928985 8.620414 55.500976
CG 10.942509 1.819550 49.302792
CG 22.758587 3.726311 47.647287
CG 22.084070 0.774473 54.482392
CG 16.932446 1.300635 70.238381
CG 17.747402 115.259319 56.095161
CG 24.143221 115.552397 62.651802
CG 27.240197 124.850673 76.954464
CG 28.440103 114.558452 69.201898
50
frame
CG 34.676290 0.160816 53.139077
CG 31.246020 5.688432 65.991603
CG 26.998702 3.180503 69.678181
CG 22.633065 3.429752 67.107788
CG 14.126172 7.156910 68.673805
CG 7.681019 8.155699 57.214721
CG 11.759329 5.568793 55.436845
CG 14.260349 12.143064 43.122447
CG 12.231594 14.320052 46.817406
CG 6.586228 12.341375 49.020431
CG 3.138973 9.174920 65.484474
CG 119.513729 15.365097 62.480276
CG 111.788432 15.197604 71.066067
CG 108.432461 19.784611 67.931488
CG 111.518805 24.537471 69.366613
CG 110.931029 32.137119 58.072229
CG 104.959157 30.554234 64.817568
CG 95.683426 29.713943 59.221368
CG 93.291863 37.011975 59.946275
CG 90.114044 36.620313 54.251833
CG 83.104152 37.508615 51.402385
CG 79.430539 36.860082 50.201188
CG 84.758446 48.635948 48.736701
CG 87.686555 41.377685 35.497119
CG 89.818740 53.436657 42.402209
CG 86.653706 53.427526 55.349303
CG 89.202327 58.040738 54.148680
CG 84.838852 45.914438 51.634562
CG 79.410436 50.820456 61.047585
CG 81.401000 44.970769 66.623521
CG 95.800721 45.201517 57.720937
CG 102.626630 46.809503 46.791923
CG 105.304702 50.305281 36.657495
CG 109.863423 44.175972 40.256875
CG 112.259817 32.810839 40.508793
CG 106.806045 36.827160 41.706966
CG 105.333534 25.171067 39.170167
CG 116.638633 27.010666 67.012029
CG 123.722537 19.270091 65.538378
CG 2.399230 26.621297 67.095699
CG 6.592094 14.285752 55.497218
CG 20.103425 13.074488 64.439492
CG 22.156224 5.740207 56.900192
CG 19.727433 8.796180 72.030546
CG 17.245206 120.549667 60.530461
CG 19.344335 122.563650 70.726667
CG 15.275668 123.247454 70.408237
CG 14.827109 120.129668 67.836903
CG 20.854095 119.301989 50.210795
CG 28.966035 1.422989 51.296305
50
frame
CG 31.365839 7.940255 82.326886
CG 25.848128 1.697022 72.200117
CG 15.410203 4.741357 65.827416
CG 7.843579 5.434098 59.269659
CG 11.039898 10.474453 51.199032
CG 14.160735 13.034618 49.311365
CG 6.706267 16.117082 36.974540
CG 2.014716 10.393091 51.102373
CG 121.849826 6.720136 41.303041
CG 0.378210 9.487644 47.864783
CG 3.152924 18.960972 53.971055
CG 4.227876 15.502450 69.177369
CG 4.811187 21.216219 73.298934
CG 123.906925 21.117617 88.537717
CG 109.773845 23.515396 77.436539
CG 105.890021 24.144604 85.747420
CG 105.060050 34.210343 70.395736
CG 104.342640 39.666717 58.750640
CG 94.490719 34.169584 43.384158
CG 85.539646 35.189342 39.446189
CG 83.096470 35.096106 28.485590
CG 88.029125 42.761058 20.962011
CG 88.571699 38.799233 25.262806
CG 91.706147 55.035755 41.717709
CG 90.697054 41.167566 44.257007
CG 92.464737 44.929334 54.886040
CG 86.789477 36.356027 70.290328
CG 95.719787 45.362039 82.062039
CG 108.285595 42.961367 89.475878
CG 110.221265 47.809390 74.853002
CG 102.580863 39.199494 64.943607
CG 99.897572 37.737733 64.175996
CG 101.564877 26.837766 48.843379
CG 105.914454 30.187471 29.524805
CG 107.144747 42.498038 32.006077
CG 112.062501 30.019346 28.676159
CG 113.450197 36.881382 39.337400
CG 103.692063 23.351395 33.310263
CG 107.786369 25.951486 46.565538
CG 122.097058 16.073489 51.138739
CG 12.286196 24.917602 77.694349
CG 11.243008 18.783957 71.412924
CG 13.955751 16.240905 81.417942
CG 14.095154 124.901429 73.609366
CG 16.666814 9.370531 83.761831
CG 16.544742 0.440975 59.787995
CG 22.722292 1.771100 61.013799
CG 23.663247 7.465164 51.832186
CG 16.674371 0.526298 50.480352
CG 6.285474 124.384604 48.909747
50
frame
CG 5.237617 5.246769 82.428691
CG 7.341045 10.710599 75.002683
CG 14.883946 12.265201 63.291075
CG 17.985256 13.973162 52.760403
CG 8.494935 11.136178 40.610273
CG 0.712491 9.580868 44.554657
CG 124.239226 9.696239 50.231419
CG 122.798592 12.327320 43.371633
CG 0.411606 18.735494 56.114286
CG 124.015778 17.394536 65.082876
CG 123.416030 14.103659 56.639779
CG 3.601737 20.604291 65.538482
CG 0.745967 22.840739 68.734135
CG 124.339711 23.873944 72.065089
CG 0.611594 28.345760 84.078956
CG 115.493481 30.234081 76.331210
CG 100.754729 26.450137 62.253923
CG 94.643611 27.533197 60.270106
CG 96.499287 35.404847 44.085254
CG 102.290077 41.405137 24.665503
CG 102.586210 42.732066 22.472629
CG 96.141856 44.371579 31.098454
CG 91.623810 39.316165 29.367569
CG 89.870278 32.029124 38.110285
CG 89.570038 34.007487 57.577933
CG 97.702505 35.387610 66.613286
CG 113.133848 36.090360 76.017309
CG 116.273585 38.376983 79.189227
CG 109.728869 31.548057 67.266473
CG 112.890297 30.120385 78.268006
CG 114.680205 30.859881 78.536803
CG 112.189018 26.730713 57.260132
CG 106.382062 33.069135 59.593828
CG 100.819488 28.336193 60.119767
CG 102.892151 21.156088 41.760828
CG 103.910322 28.456289 33.127891
CG 108.354722 30.225449 31.597662
CG 121.626002 30.851715 25.404813
CG 0.959979 32.221836 40.823900
CG 115.732720 24.985825 50.808426
CG 110.962517 19.051012 57.081301
CG 117.873276 11.382465 71.905577
CG 2.887660 17.940092 87.145701
CG 10.196097 21.185411 71.687397
CG 16.394435 13.987208 66.054076
CG 19.992489 15.680819 68.423282
CG 15.908581 12.076086 54.743825
CG 8.631191 1.441762 47.231968
CG 7.665551 10.373443 57.857445
CG 12.625861 5.697641 52.963602
50
frame
CG 116.099768 15.937018 53.591158
CG 122.418333 16.062534 60.138699
CG 123.188815 13.250797 59.412070
CG 123.238871 12.973425 58.145345
CG 3.512440 12.589009 65.806811
CG 2.325083 13.243737 50.426604
CG 0.944775 13.060151 56.682124
CG 0.179206 18.280076 63.696365
CG 0.002817 16.644754 65.076987
CG 1.065293 22.916963 57.026183
CG 124.882675 24.383042 76.731986
CG 116.624824 23.733502 63.530193
CG 118.914654 21.838503 66.274035
CG 119.300756 29.913906 55.285008
CG 114.712773 26.071686 48.635615
CG 113.690115 26.701497 43.843450
CG 118.262497 30.492697 58.219690
CG 114.065834 32.377171 39.804181
CG 110.288946 34.796775 43.866217
CG 105.369587 35.185220 53.237087
CG 104.319589 39.934492 50.247038
CG 104.066419 29.297717 42.427581
CG 104.599973 37.110925 58.702396
CG 103.397287 26.707355 57.922025
CG 115.101056 33.470988 58.132016
CG 114.725867 25.021955 61.971712
CG 111.567299 30.819358 55.131190
CG 112.757774 17.259137 55.027439
CG 120.285179 25.583142 68.458976
CG 115.582587 17.765660 59.262338
CG 113.911986 22.683600 57.541025
CG 114.311376 25.181087 78.019570
CG 115.487238 22.662967 68.943390
CG 112.218721 24.730007 59.583518
CG 107.957344 23.642318 62.108015
CG 111.080224 26.796058 59.755158
CG 115.908102 17.371113 41.921236
CG 114.867124 30.249037 58.893037
CG 110.424146 19.962584 40.701027
CG 118.824358 28.971461 48.151805
CG 117.215510 22.553467 47.305875
CG 115.895184 30.586279 52.884392
CG 113.758334 16.521165 33.425920
CG 122.297867 24.608386 67.441851
CG 0.434409 22.932260 57.441745
CG 0.942716 21.835816 57.878716
CG 1.330474 19.003358 64.020138
CG 8.508140 20.992911 73.612565
CG 12.271455 11.490150 53.286623
CG 10.586535 15.353819 58.591704
50
frame
CG 116.218810 24.360062 38.271374
CG 107.195341 17.292132 38.269825
CG 104.645383 17.381718 54.074740
CG 107.758279 14.407485 63.446965
CG 113.804668 16.780925 66.843625
CG 123.945899 19.878854 85.354345
CG 3.774376 22.969326 75.545338
CG 5.025357 19.534239 69.934554
CG 0.132565 22.595884 68.740283
CG 119.266112 21.809766 74.044643
CG 117.740369 26.868555 58.763887
CG 119.294575 28.899345 58.483555
CG 112.538724 31.609913 46.672859
CG 106.561493 22.429326 40.979821
CG 111.087657 27.243745 32.565429
CG 118.657433 31.117903 29.599148
CG 122.104708 33.733935 19.822659
CG 1.218429 35.732885 45.559015
CG 124.503967 31.473407 60.367614
CG 117.014066 25.053500 60.473306
CG 112.133246 21.022197 76.913195
CG 115.101632 27.730857 86.566615
CG 0.018741 22.729428 72.542241
CG 8.211542 33.705059 69.062910
CG 123.177927 22.401456 56.528846
CG 120.690940 20.078121 44.443945
CG 119.789867 10.484676 49.875750
CG 116.287002 16.670858 46.702311
CG 112.845193 12.100898 41.514510
CG 116.857428 19.301756 54.285382
CG 118.749675 15.006250 63.711742
CG 116.188071 15.828803 54.380585
CG 115.683579 15.431078 63.099482
CG 124.141198 19.517151 74.668717
CG 4.537802 24.504847 71.636125
CG 122.731015 17.936540 76.652980
CG 111.218816 24.769861 86.644282
CG 105.789562 12.620590 66.579963
CG 110.627419 20.644425 63.620426
CG 111.119926 22.974586 48.382889
CG 117.474536 29.521400 32.335103
CG 120.610848 30.232165 27.361873
CG 117.431833 37.519848 38.487021
CG 104.248576 24.220022 21.204490
CG 100.460694 26.088299 43.525593
CG 109.146473 26.084519 62.515417
CG 122.894302 25.856646 62.874175
CG 1.735252 30.500649 58.987864
CG 4.159966 29.315849 74.307131
CG 7.171063 25.579300 70.995282
50
frame
CG 95.414094 17.338041 40.125170
CG 103.483191 25.285682 48.239622
CG 107.426034 24.942511 46.193960
CG 108.496592 26.855548 62.063979
CG 106.040942 26.709267 69.692315
CG 108.533914 22.887430 73.114955
CG 113.505362 23.212916 84.357970
CG 116.585181 26.924610 88.448438
CG 120.823887 29.756216 73.948635
CG 122.056986 28.569918 62.675025
CG 113.511894 26.405194 46.391296
CG 109.083689 24.960145 44.431261
CG 110.702300 26.997150 30.102728
CG 119.022191 34.857446 27.884989
CG 120.204676 36.176153 25.583395
CG 118.709003 32.318396 37.117389
CG 118.012911 28.227426 45.311405
CG 119.924746 22.127762 47.526928
CG 123.514332 20.925733 52.438530
CG 11.686714 26.298457 79.076013
CG 20.657833 19.886562 79.464962
CG 20.720225 21.208825 80.110674
CG 7.900256 15.498410 78.152651
CG 2.886014 10.531128 69.139553
CG 7.342673 8.548886 63.961890
CG 7.349047 17.079090 58.279579
CG 0.891446 12.396882 42.515155
CG 124.536427 14.828743 45.044315
CG 119.460014 7.929486 47.090702
CG 116.512279 8.400715 43.063071
CG 115.741945 9.825651 43.880499
CG 1.017763 11.263548 54.906478
CG 7.882629 17.300924 65.511575
CG 0.359188 11.423079 69.533713
CG 118.501436 9.840674 86.284226
CG 118.512286 14.015307 83.461771
CG 123.171659 17.907791 82.160737
CG 122.174993 20.225095 73.065664
CG 116.897919 28.444443 71.431502
CG 110.158006 19.583494 50.376853
CG 107.915609 29.583391 52.385841
CG 100.187549 22.206805 28.585431
CG 102.692692 30.950596 34.055546
CG 110.123037 37.941045 35.762369
CG 115.245832 37.181194 37.133426
CG 107.739446 33.948998 25.431960
CG 102.209280 37.907500 49.353083
CG 107.511569 29.348143 64.010323
CG 116.554732 40.674798 72.888752
CG 119.129912 43.893834 76.453525
50
frame
CG 95.626766 27.433481 60.479093
CG 96.106082 24.679772 59.431801
CG 98.343463 28.537250 62.717905
CG 103.350727 32.568221 54.971632
CG 107.395079 31.238814 63.327768
CG 101.118182 34.928138 63.294277
CG 97.155802 32.779781 66.117737
CG 100.660710 32.170908 60.625446
CG 101.924142 26.655662 64.396968
CG 104.473786 30.203841 51.061175
CG 115.649083 30.316019 52.595043
CG 120.784929 34.360489 27.914490
CG 123.121552 32.141732 35.022934
CG 119.689359 33.190535 37.316242
CG 118.705914 27.370221 48.347811
CG 120.183684 26.083406 45.199486
CG 123.718949 22.625817 61.585227
CG 3.743847 22.171001 66.939090
CG 16.046658 19.622223 70.795598
CG 20.551283 13.533783 58.021863
CG 19.759829 19.681288 56.051480
CG 21.038240 5.025887 57.443067
CG 28.372930 9.016160 68.062253
CG 19.794563 2.535396 69.390478
CG 10.808143 10.537318 65.613672
CG 5.920892 124.200873 66.058298
CG 9.013839 11.696315 66.685853
CG 5.555691 3.270565 53.504624
CG 6.855666 13.717647 47.585553
CG 7.363930 6.032259 46.934088
CG 10.101266 9.219104 50.039185
CG 0.207882 7.655594 60.948840
CG 117.283468 0.945610 63.345353
CG 121.159467 7.502109 68.954858
CG 0.335827 10.249634 66.839959
CG 0.261633 14.639354 69.937669
CG 123.054085 11.636819 61.865391
CG 123.082521 26.014911 73.279869
CG 118.350617 17.954858 59.056613
CG 113.695809 29.636997 66.991923
CG 100.733582 20.576556 60.579674
CG 103.175790 34.896181 72.467876
CG 104.224923 25.835938 44.150052
CG 105.176733 32.762460 43.568726
CG 103.179633 40.386753 33.283733
CG 109.634991 45.752344 48.299693
CG 109.034037 45.394816 40.599654
CG 100.611692 54.602152 46.330203
CG 91.302435 46.404968 47.592802
CG 91.282226 46.159078 62.596802
50
frame
CG 99.820107 35.929920 80.654298
CG 95.527962 35.749254 71.533230
CG 94.901751 33.508764 71.459501
CG 89.859909 30.864696 67.674646
CG 88.038817 37.465815 52.873521
CG 95.940940 38.577413 47.710621
CG 96.235734 38.070169 36.363113
CG 89.225812 34.514329 32.518747
CG 92.604734 37.065290 32.879502
CG 101.677764 34.566663 37.512528
CG 108.809080 35.823584 40.172522
CG 116.387721 35.089502 59.118099
CG 121.187982 33.433979 62.508573
CG 122.826328 21.862020 56.668330
CG 1.501672 21.204646 63.542236
CG 6.576960 20.732325 75.061268
CG 15.900779 19.750939 64.764725
CG 23.007123 17.982351 60.163390
CG 18.295899 17.247153 58.544834
CG 13.538164 8.013446 50.245895
CG 20.635845 124.003853 55.644896
CG 21.064042 6.275798 51.453404
CG 18.846242 4.084386 41.871579
CG 26.536616 5.882609 54.503237
CG 27.241316 0.108917 68.316676
CG 20.914563 2.529228 65.244460
CG 15.091373 122.883762 67.617168
CG 16.403320 3.259823 71.389193
CG 21.256082 1.707584 70.210687
CG 16.952951 9.417402 71.373782
CG 6.104395 2.309991 71.028664
CG 3.721390 1.325358 58.221341
CG 3.394514 6.169717 54.908316
CG 124.780087 7.308004 55.667035
CG 122.709636 8.127221 44.404325
CG 124.875778 12.891323 49.412181
CG 120.536499 20.080143 54.880087
CG 113.395946 11.706307 51.037617
CG 109.772249 17.455232 64.298069
CG 112.189125 26.669938 79.750881
CG 119.764241 27.776880 64.591362
CG 116.535480 28.749863 64.999012
CG 105.090875 38.551886 76.530646
CG 99.704248 37.988468 71.255891
CG 99.924084 37.785312 63.032068
CG 95.385178 49.174706 54.587436
CG 92.800777 53.438194 42.505019
CG 92.001103 55.461668 38.969192
CG 85.216490 55.084069 34.535055
CG 74.012655 55.891141 14.010970
50
frame
CG 93.523446 41.894942 79.864598
CG 95.322173 42.608981 89.123996
CG 88.182980 43.267162 69.521857
CG 87.905978 44.360379 61.438884
CG 85.360440 37.894153 49.300826
CG 78.010559 32.575741 33.589632
CG 83.444099 39.404576 24.208512
CG 98.574770 43.307677 24.334353
CG 103.245552 44.225329 17.268660
CG 101.963927 41.387784 37.924497
CG 98.959060 37.473404 47.329252
CG 103.167257 24.726019 63.204438
CG 111.428401 21.045856 68.548491
CG 4.110356 26.166537 94.980230
CG 17.195543 23.702288 79.902317
CG 25.715555 15.308794 66.915916
CG 20.908068 14.331265 62.643864
CG 15.609195 7.322309 57.520437
CG 18.877610 123.714812 45.750844
CG 25.273753 8.826157 58.858459
CG 16.182978 6.870837 44.133620
CG 18.826293 3.702940 47.460325
CG 21.186233 120.858965 59.261929
CG 19.473363 1.028802 47.166017
CG 23.745829 121.912260 41.917703
CG 36.611115 4.828175 61.565617
CG 38.476692 121.255165 69.800444
CG 32.343263 2.174351 81.541193
CG 14.386640 118.110797 90.827708
CG 12.203453 117.894953 83.278401
CG 15.459808 1.673993 72.076866
CG 16.639452 8.468676 67.667413
CG 11.940772 9.181598 53.898121
CG 7.111233 8.317287 34.974041
CG 124.000368 14.387277 47.800695
CG 112.185243 7.969645 37.352836
CG 110.047637 9.926324 46.035063
CG 114.501026 18.291760 57.420294
CG 121.263963 28.304256 62.984690
CG 117.323511 11.661186 43.075785
CG 112.726252 33.675905 82.994900
CG 108.323446 31.341833 76.692438
CG 114.962180 37.630008 79.972032
CG 107.063018 45.548553 76.737671
CG 93.797848 53.734645 84.141939
CG 82.650100 44.730933 59.405356
CG 75.773160 49.012654 57.885276
CG 69.082289 48.747910 25.235610
CG 75.941601 62.912416 7.746300
CG 87.714846 63.852767 14.939480
50
frame
CG 91.982200 43.001094 79.587456
CG 88.763353 42.616494 65.789299
CG 90.618214 40.392672 67.550535
CG 86.667366 37.374872 58.924178
CG 86.005785 41.230293 47.793046
CG 94.139897 45.043170 43.239729
CG 94.844935 40.099191 36.871776
CG 89.086878 37.546998 33.438470
CG 91.850438 37.240040 41.876883
CG 100.575466 34.287892 40.462925
CG 108.713730 31.468025 47.802863
CG 115.760290 34.441879 60.805461
CG 122.158610 30.887209 68.053009
CG 0.441068 20.011474 57.872111
CG 3.710209 16.990346 67.958317
CG 8.347019 17.648449 74.001511
CG 17.650159 11.168135 64.647813
CG 24.407599 10.917722 59.511527
CG 19.817651 13.042096 59.488710
CG 15.217621 2.995595 47.278646
CG 22.372573 0.399008 55.823328
CG 21.175875 2.236442 53.228541
CG 20.605381 4.756001 42.357908
CG 27.786786 0.490264 55.528489
CG 30.473070 0.766881 66.932750
CG 23.919119 121.458075 62.127345
CG 20.123531 124.398544 67.670899
CG 22.152009 120.197807 71.320274
CG 28.972113 1.473694 69.161751
CG 23.638265 4.953675 73.402194
CG 13.823775 1.368800 71.638693
CG 9.059275 0.894163 59.626231
CG 7.224326 6.758423 57.347836
CG 1.632583 9.847123 58.707469
CG 123.487806 7.670641 45.187922
CG 124.872525 15.044579 51.389081
CG 122.005918 19.353323 52.296499
CG 115.634272 14.439213 45.891460
CG 110.417774 16.037715 57.247742
CG 112.659985 32.214917 77.337192
CG 115.857436 26.446650 60.884452
CG 113.773290 32.638620 67.013258
CG 100.987265 40.693847 75.988526
CG 95.707409 40.204170 72.286795
CG 94.662149 40.338354 60.201584
CG 89.047202 50.764643 56.879446
CG 85.340381 54.804325 40.329489
CG 86.611214 58.004777 41.071147
CG 81.539878 53.549487 37.742690
CG 72.400666 55.943230 18.644573
50
frame
CG 84.287289 41.078639 49.414479
CG 85.356486 38.037717 53.022319
CG 88.197258 40.061941 52.731924
CG 95.548746 43.775947 49.437787
CG 101.642830 43.222170 57.136100
CG 97.672184 41.178111 58.855799
CG 94.535832 39.921313 65.292845
CG 97.373968 35.334475 64.554875
CG 100.408992 27.361207 64.565983
CG 104.024887 29.546181 60.368652
CG 115.413838 31.118710 60.331100
CG 122.960353 28.943557 38.466056
CG 0.154084 26.565076 41.019035
CG 120.421239 26.545647 43.297944
CG 121.505985 19.128949 49.256198
CG 123.788833 14.382181 49.703807
CG 2.366273 16.620022 64.362042
CG 7.177924 14.303924 65.721646
CG 19.525219 10.215839 68.502101
CG 22.761695 7.358406 61.508389
CG 21.956200 9.656225 56.170300
CG 25.514899 1.534669 55.112802
CG 31.641031 2.878454 67.132324
CG 24.829585 1.041509 67.255841
CG 16.701315 3.470567 65.930390
CG 14.101950 120.807285 68.371081
CG 18.762315 1.575761 63.724365
CG 16.314186 2.410849 51.984399
CG 18.080487 6.140602 49.996323
CG 19.711182 3.795112 46.437655
CG 19.670342 6.787980 52.609721
CG 9.386174 6.303649 64.614121
CG 0.146859 0.556403 65.746185
CG 2.235010 6.400802 70.680867
CG 5.734750 13.098849 68.410976
CG 4.844394 15.551423 65.904847
CG 124.454698 14.923853 57.826689
CG 122.232181 28.007180 71.407475
CG 117.275429 23.133071 55.916950
CG 110.756723 29.024730 60.816099
CG 99.840861 27.659420 56.943248
CG 97.756173 37.976053 66.412776
CG 96.650360 29.455715 41.614907
CG 95.311019 37.416242 43.137497
CG 92.297878 43.919730 35.603601
CG 99.930837 50.059101 46.756826
CG 101.240200 47.911054 45.382371
CG 92.183515 54.013985 50.534727
CG 82.487305 49.832799 51.375755
CG 81.550559 46.507953 66.859627
50
frame
CG 82.580342 35.185525 26.657674
CG 91.319129 42.882089 33.957485
CG 94.681754 43.251330 37.122706
CG 97.360195 41.671161 56.596206
CG 95.661486 38.317733 66.433314
CG 99.357142 34.165615 74.250468
CG 106.854485 30.649307 80.887508
CG 113.427431 31.543672 87.963436
CG 118.491890 35.647210 77.750714
CG 121.672933 28.709092 68.043807
CG 114.773207 23.484853 49.453094
CG 109.404481 20.566600 52.700569
CG 112.237249 20.537791 36.580586
CG 122.960094 21.857918 37.223765
CG 122.974290 26.733810 33.079356
CG 121.182194 24.088809 41.285587
CG 122.148637 16.654831 46.421390
CG 124.487289 12.041111 54.896130
CG 2.661853 11.215241 56.445932
CG 17.572535 16.044121 76.426833
CG 26.754869 8.522098 77.334356
CG 27.027535 11.337666 80.015962
CG 16.257658 3.524345 76.486705
CG 13.140338 2.263781 69.136812
CG 18.014497 123.659825 62.310049
CG 19.599619 12.798457 56.188752
CG 12.574452 5.507038 46.432678
CG 13.498270 8.567254 47.481314
CG 7.143880 2.880880 45.335830
CG 3.037392 6.201852 46.016663
CG 3.113549 4.949342 46.112395
CG 13.290854 8.109496 54.591125
CG 19.160176 15.764786 66.707035
CG 12.077791 10.662913 67.048742
CG 2.261853 10.216247 82.275446
CG 123.355037 15.566133 82.893222
CG 1.004288 23.305906 82.611626
CG 122.379225 22.306843 68.480811
CG 115.110835 34.576204 69.926031
CG 105.525485 25.357351 47.174183
CG 100.845528 34.280104 48.514304
CG 91.800931 25.676505 22.749051
CG 94.203304 38.103557 31.179851
CG 99.939136 42.515843 29.871812
CG 105.246651 41.739016 38.399981
CG 96.316938 36.377853 30.584719
CG 89.506149 42.193114 54.137961
CG 94.027506 33.920591 66.215336
CG 102.281654 42.701417 77.832337
CG 103.418320 47.716802 79.998176
50
frame
CG 103.377191 45.969757 26.040436
CG 93.486230 37.231121 27.781269
CG 92.229313 34.436807 46.736807
CG 93.793697 31.982174 54.762547
CG 100.901562 30.933337 62.687508
CG 112.841868 32.192665 80.777018
CG 119.142587 33.173022 79.607584
CG 122.835207 29.024799 70.626318
CG 121.681677 24.070839 69.997612
CG 116.985374 24.729751 70.311640
CG 116.651735 23.961315 64.488817
CG 120.360785 23.383185 58.103851
CG 115.124152 22.294037 53.725991
CG 108.255737 19.331241 44.540026
CG 114.428062 16.868566 40.687062
CG 123.370138 19.590762 39.552995
CG 124.781532 22.034416 31.548615
CG 6.016992 23.750721 46.083665
CG 6.844663 18.846618 62.458566
CG 0.231350 10.410953 64.412732
CG 122.770651 11.414509 79.886556
CG 2.325057 10.337325 85.494056
CG 13.701439 11.212920 71.688203
CG 21.094631 16.506434 68.413481
CG 13.300505 14.627410 58.061213
CG 9.832771 5.081640 46.036240
CG 9.890554 8.892547 48.450243
CG 2.951148 8.849718 47.880331
CG 1.331180 10.563345 46.669819
CG 5.313075 9.643231 55.205484
CG 7.787794 12.907246 60.706469
CG 4.850183 12.976485 52.228979
CG 4.419696 11.664820 57.467682
CG 9.344748 19.663436 72.765521
CG 13.107707 23.997304 71.443724
CG 5.227643 20.724295 74.427615
CG 115.925348 24.657811 83.452614
CG 107.406338 20.980780 67.209843
CG 107.264152 22.842175 60.575903
CG 106.205023 30.875884 46.451113
CG 108.272886 33.864055 29.797131
CG 111.854302 39.408586 27.828309
CG 107.390943 40.770309 35.446677
CG 95.444407 28.106517 24.327690
CG 89.342637 31.933743 40.700795
CG 95.375991 32.096048 61.579003
CG 106.140466 29.555450 62.394009
CG 108.280843 36.535132 64.644642
CG 109.772310 35.172910 77.092436
CG 114.458057 31.472890 74.962984
50
frame
CG 102.060721 34.923573 48.601969
CG 108.387117 36.357878 53.079222
CG 108.783588 32.053926 49.873859
CG 110.774783 28.753279 51.859021
CG 116.874011 29.569913 60.980825
CG 115.611561 27.293412 46.111692
CG 115.804560 24.227760 50.917918
CG 115.479333 24.592156 61.369945
CG 116.115733 22.849669 65.149235
CG 120.646005 22.332268 60.134259
CG 122.746912 23.418075 73.740414
CG 115.575247 23.803893 63.594584
CG 119.027284 20.359038 67.447160
CG 122.013420 20.699147 62.242472
CG 117.653807 18.801131 55.646604
CG 117.126628 17.622621 47.144342
CG 1.076688 19.728254 62.710021
CG 122.270940 17.394951 49.967183
CG 119.524825 20.639699 51.916481
CG 116.784936 20.882552 57.103536
CG 118.345213 20.170202 53.213613
CG 119.517122 16.002084 46.889178
CG 120.778900 22.745290 64.304730
CG 120.841265 13.472543 59.177498
CG 6.351751 18.675225 57.713748
CG 4.033642 16.440729 63.792805
CG 0.917329 15.921753 58.214773
CG 3.631292 9.979025 55.131713
CG 10.319593 16.943592 64.548163
CG 5.115962 17.392347 55.354181
CG 2.745879 17.285410 56.228743
CG 1.286006 20.551389 75.424396
CG 0.542226 22.644941 67.181602
CG 122.158702 22.318211 56.730395
CG 117.200321 23.765400 57.550022
CG 117.298732 28.635607 58.303725
CG 118.801033 20.247865 39.832709
CG 115.937675 31.219910 56.612741
CG 109.623547 25.206356 39.594238
CG 114.779231 33.280390 49.544090
CG 113.566232 29.606682 48.594937
CG 108.770045 33.864101 55.522373
CG 103.497530 22.858827 35.937990
CG 108.570907 33.891306 67.398210
CG 109.156182 26.149359 57.786116
CG 109.452704 28.246382 57.790051
CG 109.102390 27.849751 62.999364
CG 115.455667 26.965809 70.856257
CG 118.002457 19.848882 54.147926
CG 113.584701 23.068473 62.252798
50
frame
CG 114.886717 22.602824 78.205231
CG 118.585938 25.559489 71.439457
CG 2.243875 30.225439 61.907424
CG 5.752254 31.864812 48.757372
CG 121.904961 25.017237 31.167586
CG 115.315374 21.211818 39.044540
CG 113.595904 20.669699 42.024330
CG 117.659415 20.664567 37.102401
CG 122.833563 25.711926 46.953574
CG 119.507559 24.153550 61.999152
CG 111.776108 18.880258 57.883182
CG 118.121427 16.758834 75.315495
CG 119.616714 20.272834 70.923760
CG 124.255907 21.104089 72.586446
CG 5.145542 23.335125 81.642389
CG 123.162142 20.066628 82.856811
CG 109.139451 14.806798 66.020614
CG 104.091685 17.228805 60.433028
CG 110.143711 18.824856 49.927433
CG 117.598147 25.467514 35.363822
CG 117.333003 28.303875 32.398345
CG 112.439993 30.234747 38.241105
CG 108.078761 19.912064 31.888552
CG 106.412275 23.184670 45.637586
CG 106.534858 17.499175 69.467528
CG 116.721613 23.602346 66.352188
CG 4.449613 22.144312 73.226124
CG 8.019877 29.917499 75.930292
CG 0.098728 19.680536 63.468996
CG 1.881020 22.552389 75.987842
CG 0.864347 26.585453 74.826515
CG 122.638795 26.587391 54.085187
CG 115.631480 29.008410 58.966279
CG 108.541514 27.763073 57.478160
CG 107.158956 22.935836 39.778139
CG 107.095867 25.973690 29.069131
CG 111.986683 33.939232 30.363619
CG 122.730973 31.022748 24.046590
CG 2.700936 36.536645 43.731486
CG 115.924327 24.943114 52.382608
CG 107.672787 23.317343 61.346594
CG 109.493054 17.353165 71.952710
CG 117.573964 25.181633 91.244053
CG 120.954638 24.346113 71.733934
CG 1.025301 25.843620 69.508918
CG 1.891898 23.977736 67.726653
CG 122.273967 19.472934 55.769333
CG 113.996210 11.719532 46.234914
CG 112.632700 18.941723 56.934797
CG 118.627804 14.642930 46.887603
50
frame
CG 19.335775 20.894591 82.016536
CG 12.341747 17.968990 71.260619
CG 2.951756 16.047587 61.459996
CG 121.039378 16.007472 54.810577
CG 0.415859 22.538650 49.553516
CG 7.049866 25.658650 39.513002
CG 3.952072 25.205408 29.073609
CG 119.864254 22.928446 41.376938
CG 114.308605 16.361992 36.708262
CG 113.613211 15.614719 44.816291
CG 123.316880 21.540392 54.407805
CG 120.393004 21.563004 62.360195
CG 123.767297 20.144870 76.216223
CG 118.722726 18.208274 92.137674
CG 109.322554 15.595547 81.086647
CG 111.230548 19.728714 79.692199
CG 113.026764 24.920118 65.355638
CG 116.856467 26.557383 58.654513
CG 106.235564 25.386770 42.557671
CG 99.256220 23.262296 41.656044
CG 99.829720 22.143786 34.206016
CG 103.810700 26.856921 32.201394
CG 104.647115 29.685719 42.690554
CG 110.237164 33.049291 54.390996
CG 110.416026 30.671226 47.919172
CG 111.171480 28.796739 66.848232
CG 106.574925 29.590436 74.122443
CG 111.952707 28.729021 80.313814
CG 122.131622 37.171273 88.964096
CG 121.756112 36.469851 71.488888
CG 114.149008 31.402949 62.366007
CG 108.638033 31.210344 62.491452
CG 107.427056 26.268607 43.124519
CG 109.179697 29.699199 27.137066
CG 110.963935 39.300209 32.408399
CG 115.230146 32.730760 28.949153
CG 115.623039 34.044588 40.023767
CG 106.995072 25.885195 35.943983
CG 107.532794 23.628096 47.068620
CG 119.091033 22.263884 51.924515
CG 6.427953 26.194506 78.983757
CG 5.244473 21.944282 74.858681
CG 4.187599 21.682963 81.713005
CG 3.528466 9.741405 78.077972
CG 3.064351 15.980007 84.017754
CG 0.683599 10.098265 62.251604
CG 4.132155 13.019683 60.894170
CG 4.938613 17.217606 50.605597
CG 123.536843 9.904200 42.803040
CG 113.620354 10.036152 44.717205
50
frame
CG 23.852063 10.769777 52.172082
CG 22.034429 12.420575 63.865543
CG 17.023890 12.222254 68.053034
CG 14.740484 13.402073 63.052898
CG 9.943276 15.288873 62.046685
CG 0.133756 17.466745 53.891473
CG 0.869383 18.426163 53.564441
CG 4.256880 19.879481 40.124399
CG 2.348064 21.297515 44.718404
CG 1.203295 21.118033 41.293520
CG 121.010543 16.074990 56.773500
CG 117.964239 18.140208 58.780808
CG 109.958884 17.196832 66.825547
CG 106.863399 19.268409 59.316829
CG 108.835229 23.075245 66.061691
CG 108.658952 24.126497 57.581162
CG 110.014008 26.196728 63.558792
CG 103.382792 25.950815 54.705055
CG 105.193141 28.564326 57.495558
CG 102.729794 27.135973 53.544689
CG 95.183242 28.516203 56.707266
CG 95.930220 24.812631 58.178833
CG 104.838263 34.524753 55.580895
CG 105.706472 30.615224 47.207945
CG 107.621356 41.591717 56.374746
CG 102.833862 39.385425 60.781588
CG 104.435939 43.566476 62.837846
CG 99.746417 38.473615 63.919634
CG 94.311247 38.543656 65.177618
CG 93.614648 36.872492 67.438561
CG 103.304605 38.689855 56.072408
CG 107.874069 37.727798 42.853412
CG 110.733158 42.232444 37.306295
CG 114.888278 38.983428 40.622359
CG 116.063422 31.729750 37.445225
CG 109.862002 35.376032 45.490393
CG 105.980018 23.325239 41.653207
CG 113.837894 28.013034 67.964568
CG 119.309508 20.819187 65.855456
CG 123.158674 26.224981 70.231420
CG 1.517679 17.789665 54.366108
CG 13.431587 19.915381 66.498791
CG 14.711045 9.071727 58.210420
CG 10.750930 15.736461 73.622843
CG 5.578048 2.059087 60.858663
CG 7.600310 7.629175 70.874844
CG 3.163598 6.604713 65.271431
CG 0.845729 5.544304 63.490308
CG 4.833978 7.543384 49.873791
CG 11.039639 11.611688 48.026842
50
frame
CG 19.515492 4.194199 50.452787
CG 24.783221 5.759400 43.873359
CG 31.349435 10.871785 51.176456
CG 25.883216 13.421253 65.043719
CG 16.049514 8.226398 65.878347
CG 14.150294 7.251347 70.179849
CG 8.153251 11.330783 70.095895
CG 5.925403 15.309041 64.317270
CG 9.199412 18.683532 65.628340
CG 5.716611 20.177963 65.086517
CG 115.564074 19.858033 48.892405
CG 111.122319 16.870084 45.606116
CG 107.392751 20.442154 36.450984
CG 108.891984 24.083625 33.150356
CG 108.900085 26.918332 38.287048
CG 102.528097 27.262404 43.908490
CG 96.844670 24.671811 48.988940
CG 97.296276 26.385629 60.234915
CG 97.731780 27.198536 72.389632
CG 100.971248 31.699734 75.067941
CG 110.596062 35.656838 76.612439
CG 106.168877 38.739497 71.508874
CG 95.555021 32.019878 67.552817
CG 91.957142 40.052307 69.481982
CG 94.497439 38.889382 67.216499
CG 96.636581 46.007171 46.443798
CG 92.961899 44.960708 46.322642
CG 86.794200 51.185789 45.080810
CG 84.934846 42.216970 30.392608
CG 88.894783 42.418815 31.945460
CG 89.743016 46.511845 41.187468
CG 99.825216 46.837701 45.180469
CG 110.891928 42.913546 54.532013
CG 108.238924 40.547590 58.073285
CG 105.745577 32.189619 56.825899
CG 113.502181 25.828180 69.690332
CG 121.619527 28.286930 76.486618
CG 0.114494 26.211330 64.855054
CG 2.895686 26.267733 60.851057
CG 6.079738 16.965001 67.852573
CG 4.199014 12.332596 59.378080
CG 124.889686 9.791671 53.928475
CG 4.148704 9.400635 49.848325
CG 14.716047 7.219564 43.530308
CG 16.793325 9.171431 52.089494
CG 9.555050 6.248533 63.512303
CG 8.565557 124.662004 57.638463
CG 13.460838 1.262439 61.373915
CG 15.199511 8.212013 74.966143
CG 16.572335 2.927279 69.152255
50
frame
CG 31.636655 6.252481 43.891259
CG 24.407954 5.157549 52.437260
CG 17.084470 1.089057 49.958368
CG 22.765910 123.423200 47.635748
CG 31.063271 7.555684 61.139779
CG 29.912964 11.297212 73.695639
CG 25.298216 8.429923 76.095583
CG 15.229188 8.054590 94.344337
CG 121.506901 9.525938 74.393453
CG 113.152959 11.508036 63.919630
CG 123.952013 21.622504 51.157864
CG 119.927843 27.674112 36.471066
CG 116.290387 28.176698 23.734743
CG 106.971719 25.294247 32.024467
CG 95.668155 22.468946 20.760574
CG 97.594130 25.452676 36.913153
CG 97.740999 29.526753 47.770962
CG 100.131914 31.026137 64.541082
CG 101.277894 33.748369 65.316833
CG 102.934769 36.396196 79.070264
CG 95.448413 33.911608 80.217245
CG 97.553583 41.278343 85.491885
CG 99.556208 46.697422 86.560319
CG 96.554744 47.492359 72.455345
CG 81.694731 42.140405 51.384839
CG 76.316349 44.853132 58.450901
CG 75.332709 43.343561 34.186593
CG 85.215438 44.105744 13.912392
CG 90.870881 56.760532 26.904759
CG 92.256104 59.429385 23.890541
CG 94.581666 46.779437 28.713630
CG 89.521151 43.832338 50.126758
CG 83.606384 37.307654 60.085540
CG 99.065337 32.268162 72.237212
CG 116.757217 39.366391 94.945593
CG 122.902697 33.436670 76.063036
CG 2.464843 31.879828 74.104781
CG 4.845318 18.203535 68.190384
CG 5.968566 16.211417 70.860517
CG 1.810977 12.127991 44.168226
CG 5.435444 16.302457 59.398963
CG 7.715939 6.389519 45.758264
CG 6.313098 11.497919 52.726458
CG 123.482977 2.058568 46.626899
CG 6.497294 6.539094 48.877418
CG 20.672037 0.782813 31.981934
CG 28.936458 10.655340 62.871404
CG 24.646849 5.743783 70.369205
CG 21.337454 117.930584 72.267992
CG 16.813159 123.544738 89.118731
