50
frame
CG 48.223821 8.751008 24.019334
CG 43.832063 77.440374 30.373424
CG 63.496194 61.525247 61.645548
CG 63.471810 60.011567 62.511289
CG 62.490071 60.033973 63.937134
CG 83.231734 45.321185 97.214547
CG 61.683769 58.276146 57.578589
CG 63.288288 61.772064 62.478661
CG 77.123964 116.465876 100.796515
CG 61.369614 66.069284 67.195873
CG 62.279549 63.089326 63.613940
CG 63.955973 62.434075 63.091029
CG 58.445364 61.795669 68.569010
CG 63.249445 61.703213 63.337319
CG 55.578554 36.321349 97.266055
CG 58.844488 65.741110 63.842282
CG 62.967949 64.203654 64.416357
CG 63.885980 64.299835 64.770958
CG 64.271719 63.387582 64.598445
CG 80.528451 88.344365 27.585239
CG 64.463902 62.189672 64.757706
CG 63.503355 61.985273 64.868361
CG 63.973158 62.584706 65.500049
CG 63.631553 62.162152 66.349643
CG 117.632629 45.180384 4.076193
CG 62.655860 61.947519 65.609327
CG 9.558324 20.529884 103.432657
CG 64.244400 60.989260 66.550316
CG 63.456701 60.515962 66.113177
CG 62.592115 60.936008 65.769099
CG 62.592422 61.563770 66.639431
CG 63.279050 118.587700 90.087156
CG 63.401199 60.718476 65.233667
CG 62.639811 60.134467 65.491807
CG 62.082978 59.943672 66.292249
CG 61.781817 60.534897 65.530729
CG 61.570818 59.625311 65.199525
CG 56.299287 44.563337 74.205859
CG 82.339862 31.138527 51.737867
CG 62.293966 57.440975 64.917371
CG 37.630494 87.617821 93.524192
CG 61.332193 58.608975 64.969406
CG 67.915317 73.278846 56.432432
CG 63.507930 58.589327 64.967777
CG 80.520657 46.751934 11.520094
CG 62.752053 58.152329 63.145681
CG 90.801602 103.746505 33.594868
CG 62.560641 59.215119 63.883673
CG 19.094490 22.405245 5.550001
CG 61.394953 57.926077 63.427962
50
frame
CG 53.361760 63.942425 46.860763
CG 59.727697 99.018518 48.313635
CG 53.262938 93.647687 41.423427
CG 61.641758 67.465777 59.774883
CG 66.586397 58.542330 66.362637
CG 57.056010 69.595230 53.126587
CG 72.599144 78.681106 86.366545
CG 72.042527 72.435616 82.969772
CG 60.254812 43.140256 50.845252
CG 79.277192 69.103436 54.625906
CG 89.292495 32.508206 48.491193
CG 68.592118 64.125226 58.660046
CG 29.393901 64.854737 97.977950
CG 15.093944 73.051223 105.320537
CG 14.977783 86.350759 85.494830
CG 28.237183 61.389547 97.088639
CG 25.594881 104.223607 106.407544
CG 52.055919 72.874382 72.115696
CG 65.812141 70.877512 58.067828
CG 58.737371 55.003326 76.627160
CG 67.969352 69.057857 55.246579
CG 73.379679 70.227005 48.437208
CG 83.304145 57.614008 41.806281
CG 72.235708 55.874650 52.842014
CG 28.110743 55.686550 95.596154
CG 64.471785 49.849118 58.105144
CG 99.856006 71.096619 29.921168
CG 54.586352 51.147284 69.162155
CG 45.102944 51.441448 80.308728
CG 59.744857 77.902508 77.194317
CG 63.269911 74.239097 71.074253
CG 68.632588 39.430535 53.982116
CG 96.045927 58.930955 48.726981
CG 103.933079 62.600679 45.008872
CG 95.828845 48.526494 43.678383
CG 65.299461 51.535332 60.571048
CG 64.098841 47.660803 58.972606
CG 65.201678 59.674354 58.289579
CG 48.270006 72.862276 83.916031
CG 65.362315 53.840463 74.959612
CG 93.171273 42.111231 49.405078
CG 76.673973 65.938394 62.397729
CG 70.241512 59.931915 56.466682
CG 69.887254 65.050038 48.609608
CG 68.028199 82.553335 67.890935
CG 70.627589 64.913737 40.058087
CG 44.659548 27.522362 35.608933
CG 59.695739 58.990647 38.186757
CG 82.317935 82.550263 66.923562
CG 40.117120 41.960175 27.952394
50
frame
CG 67.628540 60.234129 69.570360
CG 67.234330 49.118733 71.683324
CG 60.245922 63.757018 57.283626
CG 54.182202 107.329249 41.068061
CG 58.135287 112.006053 55.662013
CG 56.689457 92.683327 54.190376
CG 62.363380 50.695461 48.966788
CG 71.657490 67.383507 40.391579
CG 86.843792 42.187802 43.060630
CG 71.712619 30.852828 71.395534
CG 44.523908 117.268789 66.009984
CG 26.992786 85.778578 99.080884
CG 50.005471 93.984124 63.412921
CG 4.875394 82.194449 109.002121
CG 13.267570 80.832466 104.638672
CG 117.327462 89.753790 114.602319
CG 6.360269 54.336989 100.903693
CG 17.193249 53.035980 111.417604
CG 26.541378 62.957921 102.707327
CG 48.591999 60.997229 83.113609
CG 75.633255 61.788377 48.996046
CG 65.359203 49.111891 64.005596
CG 37.365389 63.019725 81.475379
CG 64.680816 59.853973 51.671321
CG 75.852574 76.890692 54.763173
CG 64.471939 58.346115 58.717151
CG 53.815286 76.467919 79.568245
CG 69.247196 71.942107 60.884271
CG 95.928578 81.608413 38.742486
CG 66.743529 31.581874 52.989514
CG 80.971091 40.799705 56.181712
CG 103.256740 32.216276 36.195689
CG 86.175205 54.520657 51.256104
CG 102.370917 20.775086 28.063700
CG 88.636904 52.998709 48.038724
CG 110.773459 56.994519 36.012098
CG 82.723868 65.326286 56.830358
CG 74.778892 61.137206 64.121364
CG 80.000200 55.825004 50.884961
CG 85.167124 65.065209 53.961699
CG 73.101929 53.520669 54.110580
CG 88.971578 53.618817 51.883982
CG 88.533895 54.845092 58.724653
CG 79.977073 68.181466 46.806412
CG 43.571780 41.304714 66.140482
CG 58.466782 60.239318 39.320139
CG 63.312305 68.300861 85.948505
CG 53.049201 48.787199 22.225739
CG 58.060680 44.002812 43.727803
CG 85.352448 85.091921 47.810517
50
frame
CG 72.842499 55.063112 79.537393
CG 61.369449 69.790570 61.667112
CG 72.044276 82.030630 80.773194
CG 66.074696 61.660712 73.156575
CG 55.228687 59.926645 33.887873
CG 73.514799 83.622014 34.772511
CG 67.454470 92.365387 13.266651
CG 56.609165 36.161768 41.162522
CG 38.561966 57.333739 78.005738
CG 21.752420 47.635589 65.671431
CG 34.929091 99.088086 87.160606
CG 26.922018 93.897479 86.849232
CG 3.871727 87.816580 106.610118
CG 34.403431 102.609612 77.766477
CG 21.665527 86.216158 98.679785
CG 14.473251 73.166122 104.141007
CG 11.941023 46.282620 107.858322
CG 119.360849 50.619738 113.131018
CG 13.931246 40.993617 99.402656
CG 22.594546 54.271935 91.263153
CG 119.369317 47.796257 11.139735
CG 32.079775 63.073677 90.448074
CG 76.091484 67.749444 55.232664
CG 49.844383 68.419103 83.803983
CG 68.538279 65.826724 51.808212
CG 69.082437 98.647779 64.571048
CG 68.324042 64.381465 56.256658
CG 87.174518 57.203139 42.157350
CG 76.929759 40.244500 57.273918
CG 122.260908 52.425146 21.459299
CG 117.480863 38.824218 11.698162
CG 89.944613 43.240118 43.628834
CG 91.068066 10.520748 34.852626
CG 85.401550 53.781468 52.479800
CG 92.792770 51.801874 46.002367
CG 93.140105 41.716649 45.664482
CG 116.260367 54.796525 33.473216
CG 124.931453 58.298356 28.791811
CG 115.451989 50.633696 30.169889
CG 92.022467 53.805378 37.508627
CG 83.323693 76.834471 59.216490
CG 75.494743 58.046809 45.921898
CG 55.897071 47.905698 50.478407
CG 64.328504 34.141718 66.448737
CG 96.695641 52.828361 37.425790
CG 58.397393 45.133226 20.253227
CG 64.508381 63.637671 84.293285
CG 83.611822 83.119102 47.130007
CG 66.453603 74.583267 68.870942
CG 67.277206 46.582336 59.996909
50
frame
CG 62.482682 90.163551 67.527217
CG 76.758207 72.891311 85.385684
CG 64.862368 47.411975 49.812393
CG 78.582367 48.858426 47.493984
CG 87.401065 54.685518 56.386475
CG 55.438229 14.679733 50.208820
CG 34.101293 44.959902 79.132879
CG 22.510788 90.148883 65.551914
CG 11.611516 85.232122 45.848535
CG 18.814756 76.205239 71.814145
CG 124.776280 63.640857 95.796596
CG 22.558916 103.449589 62.891090
CG 21.705813 95.853404 100.718254
CG 20.531139 76.091099 100.791828
CG 10.774404 83.498667 97.064139
CG 37.011160 81.788768 80.600479
CG 22.895524 88.262808 96.777729
CG 27.326085 16.053584 85.446278
CG 110.409376 40.725842 2.807710
CG 98.991938 42.340686 10.506449
CG 23.999229 57.114284 86.325275
CG 10.591197 66.991823 113.235715
CG 9.850456 58.233964 119.936862
CG 51.132435 87.890932 82.313747
CG 53.482224 69.725362 81.740332
CG 74.655654 42.944436 55.385064
CG 105.019346 48.301547 25.530764
CG 104.735130 61.002857 35.513119
CG 106.739840 38.005053 18.910966
CG 93.296317 54.246963 40.167211
CG 86.244062 32.828242 46.747897
CG 107.188288 50.963124 25.332864
CG 117.502705 62.630030 22.419685
CG 94.032284 47.413509 44.529931
CG 113.928775 19.834024 26.820213
CG 105.928784 54.067798 38.594737
CG 116.707226 34.069910 24.260626
CG 109.550448 37.521635 21.871475
CG 112.548117 71.173167 39.319082
CG 114.479059 56.837437 30.083640
CG 101.428599 32.479455 17.204822
CG 69.844902 45.292838 52.197136
CG 90.428543 63.131421 39.344950
CG 66.977938 51.486216 31.036560
CG 60.646119 62.224520 84.440172
CG 101.831675 66.156040 62.977317
CG 95.603557 51.598964 40.367040
CG 67.380174 41.939431 40.960821
CG 81.924938 64.287571 71.710552
CG 61.500411 74.216521 76.378654
50
frame
CG 73.629696 61.645668 57.493652
CG 71.591602 63.777403 39.944459
CG 81.743776 61.689927 54.980614
CG 61.299473 37.929007 63.850875
CG 35.209335 25.324678 88.895107
CG 30.432837 72.340352 91.401122
CG 30.912538 45.081599 80.518400
CG 16.147249 48.550489 82.966774
CG 10.790725 53.396104 96.400573
CG 11.661394 93.554146 67.549921
CG 14.865034 55.111932 7.314126
CG 124.831794 87.521180 19.195728
CG 18.661491 96.046748 26.049114
CG 12.168796 87.473306 115.842738
CG 37.192378 69.104974 89.449460
CG 10.507168 67.477659 101.005109
CG 0.527503 100.240002 100.807331
CG 5.466111 12.839873 116.537485
CG 36.385562 9.307828 79.355319
CG 31.259222 30.569208 93.078696
CG 118.009807 51.374135 123.014070
CG 1.608351 54.622204 116.649798
CG 8.800792 69.120041 105.187714
CG 26.250908 27.068375 92.944721
CG 53.667324 44.578828 84.806318
CG 82.853786 48.037517 54.554589
CG 81.404705 50.022781 60.751082
CG 83.363958 27.907169 42.227911
CG 108.261161 61.911761 30.211042
CG 90.200175 40.600345 33.700783
CG 108.655750 76.395939 29.895743
CG 101.839981 48.711049 38.659130
CG 98.341687 48.733878 46.475493
CG 17.834171 37.725647 122.542713
CG 124.342168 64.903688 16.418983
CG 124.985381 28.536468 9.438285
CG 99.166866 46.238624 36.849852
CG 98.923343 52.781549 42.278028
CG 96.335152 9.364260 11.700337
CG 91.117043 31.374368 31.128475
CG 106.571301 57.263115 32.455684
CG 124.024227 53.639602 8.820621
CG 97.048013 42.311522 48.563081
CG 114.471798 82.555454 60.533545
CG 94.910757 55.712788 21.856370
CG 69.314221 50.816880 65.500549
CG 72.378475 61.700711 64.081018
CG 89.468095 63.381734 101.174205
CG 78.556517 46.214595 42.451753
CG 90.732740 58.963926 50.711330
50
frame
CG 86.464608 31.183387 26.488321
CG 60.447318 27.748481 46.881376
CG 36.446442 42.246450 87.941956
CG 24.318159 78.529053 92.652840
CG 24.717196 73.468696 73.165076
CG 24.960845 50.617741 95.356190
CG 12.116979 59.705870 99.300379
CG 24.223477 58.389989 96.884853
CG 31.072419 67.076856 87.982170
CG 4.561496 29.393689 107.011036
CG 21.381556 41.724551 75.308633
CG 17.566647 80.154609 74.185077
CG 10.916854 48.283095 111.412999
CG 8.366315 74.722508 20.640292
CG 114.846988 84.990842 38.016191
CG 120.143011 78.167634 16.154537
CG 41.654266 124.306904 91.881315
CG 19.778771 18.764685 92.804305
CG 6.031785 23.667442 109.657193
CG 25.966972 24.093590 93.901830
CG 33.075790 9.832805 94.106315
CG 43.989868 3.270742 73.121466
CG 49.602613 13.530957 76.842256
CG 32.385120 35.093576 93.842442
CG 38.841950 32.552407 73.424772
CG 29.055268 30.227977 94.238193
CG 51.057373 40.130332 80.624202
CG 76.473906 54.848846 60.073145
CG 65.417553 56.567028 75.636822
CG 108.103415 53.682817 39.068460
CG 113.088607 46.768341 27.449415
CG 123.236940 50.584122 14.466231
CG 4.390167 55.078347 3.889661
CG 108.308203 54.918677 31.149193
CG 100.158157 50.823619 36.323684
CG 116.059843 51.896034 17.883242
CG 114.671782 37.489648 1.094099
CG 105.970108 15.030322 8.462982
CG 96.877338 47.835702 39.501364
CG 108.470051 42.640487 19.725457
CG 98.797299 28.033713 38.441262
CG 118.449672 56.694163 50.089565
CG 123.708295 64.485977 14.878694
CG 111.473703 32.166089 30.616647
CG 115.870685 54.737019 55.677724
CG 102.303838 71.737788 60.404985
CG 85.552218 55.190188 59.011535
CG 86.559255 62.358194 35.600950
CG 89.179104 62.840825 69.796016
CG 101.612115 33.268221 60.152478
50
frame
CG 15.525494 14.753534 83.169994
CG 36.998770 45.161735 86.451088
CG 28.881883 46.379923 42.475188
CG 27.355329 34.318030 70.058251
CG 20.073588 72.055354 104.586577
CG 14.786955 69.446432 86.518078
CG 28.444345 81.267244 89.099196
CG 12.603445 51.277287 105.693583
CG 12.459430 34.635116 90.930966
CG 42.961084 64.239854 93.091694
CG 15.662383 92.828770 82.199677
CG 19.658246 45.525462 111.599627
CG 120.182440 87.471257 84.276019
CG 1.585411 64.480247 95.021755
CG 13.633003 71.583426 106.870950
CG 30.253483 94.481511 1.718751
CG 107.658333 121.018895 51.122868
CG 22.235984 34.251596 122.642446
CG 39.174313 26.716250 101.415684
CG 28.577167 116.722356 84.965571
CG 65.685955 114.627165 53.140028
CG 56.347026 4.452012 76.561238
CG 53.420875 103.510660 69.890299
CG 58.759626 3.463389 60.317827
CG 38.749021 11.560807 87.519253
CG 35.524250 39.795510 86.846397
CG 30.734567 39.568764 83.661303
CG 42.113745 53.147761 100.550367
CG 74.554002 25.673827 59.204561
CG 90.035303 61.428893 55.807796
CG 90.838767 37.104051 48.222526
CG 108.319863 58.949461 33.546943
CG 109.511641 49.573810 26.385596
CG 97.165343 60.484864 27.938944
CG 122.349259 27.093789 115.602120
CG 85.559357 44.471760 30.950967
CG 102.847782 45.079272 35.362952
CG 119.500396 56.564431 10.011365
CG 2.517791 49.841816 14.111385
CG 124.587245 42.646330 36.249430
CG 124.435913 57.290160 18.942577
CG 90.117872 21.128735 33.995675
CG 112.850692 33.227671 58.554171
CG 107.957317 54.739282 44.739286
CG 108.527043 59.451068 49.715954
CG 5.890475 39.776199 9.255447
CG 12.943538 58.154118 43.482504
CG 112.843056 38.447118 38.761053
CG 112.532657 40.938405 60.307297
CG 82.790871 70.745629 59.676601
50
frame
CG 107.895232 64.308965 107.495416
CG 100.030514 25.154388 92.280223
CG 5.264674 38.972039 115.696467
CG 23.422589 49.862874 79.332118
CG 28.975931 31.268078 54.710068
CG 21.512071 51.495200 83.144367
CG 6.938169 42.330822 92.859451
CG 25.038430 84.854494 71.576441
CG 14.574328 96.556534 95.874688
CG 6.371099 66.201200 92.285422
CG 14.438341 121.760733 123.066788
CG 17.285502 68.562069 95.891396
CG 42.421160 50.752803 99.744525
CG 31.988323 76.736487 89.326204
CG 8.089014 88.421313 90.278098
CG 6.583609 74.478187 89.568756
CG 35.981953 100.144882 83.436988
CG 29.710060 1.930369 5.101714
CG 39.724194 112.793227 113.115144
CG 65.930524 16.670556 100.884264
CG 40.437049 5.159075 97.173232
CG 47.874140 107.355471 66.797891
CG 51.934289 11.154144 68.178706
CG 51.770700 118.007116 77.150989
CG 55.248416 2.276602 72.988266
CG 71.766665 7.625790 61.619234
CG 68.906394 14.046125 73.348636
CG 54.346564 19.291143 61.149418
CG 55.947096 49.756548 70.391414
CG 37.690784 27.708548 86.023895
CG 71.150831 56.350964 63.510339
CG 60.611313 43.937918 66.535487
CG 72.081079 31.041675 48.687435
CG 103.298059 26.732187 16.573790
CG 90.224531 65.040386 47.086662
CG 122.717821 50.394541 7.803384
CG 123.703184 51.254867 8.618993
CG 109.971221 66.707722 57.093576
CG 121.246276 47.259603 21.231164
CG 108.384192 46.519904 18.133199
CG 124.662674 40.492692 42.117273
CG 9.456036 57.290281 30.015937
CG 99.437198 44.368929 38.503595
CG 118.202597 36.376277 31.716489
CG 7.644781 24.175790 19.110589
CG 117.041123 34.867200 54.802101
CG 123.271544 33.123777 28.408906
CG 12.391822 56.837233 54.076689
CG 121.350395 64.410653 20.024253
CG 8.777849 43.732655 38.679749
50
frame
CG 92.562937 44.243541 115.440063
CG 104.070327 75.498120 112.466783
CG 100.671538 47.927010 106.129568
CG 94.365684 37.309438 112.617709
CG 115.722765 30.988344 107.432101
CG 24.296437 46.139670 67.471852
CG 23.633221 62.962006 56.552851
CG 7.600673 57.424854 87.036744
CG 14.550456 71.104371 101.461751
CG 4.064504 105.318924 97.436794
CG 34.086458 39.354883 87.931734
CG 26.045999 76.412062 86.521453
CG 18.564379 77.056046 114.703940
CG 26.325606 74.894040 98.360667
CG 61.231931 61.323202 82.843629
CG 42.251634 89.034011 83.432334
CG 59.993180 38.199187 44.660059
CG 52.236657 97.710176 47.138056
CG 42.045255 120.745415 83.390331
CG 33.757992 110.569779 109.498647
CG 38.556578 4.922707 121.157357
CG 52.502872 20.636082 111.106187
CG 47.913428 10.888695 97.889381
CG 58.811679 4.538810 72.345918
CG 83.751819 5.491110 49.662330
CG 66.823270 105.599343 61.168166
CG 75.199655 4.267784 51.581506
CG 77.935653 123.524471 51.926989
CG 50.503599 20.397674 79.509543
CG 48.845391 21.574006 58.389044
CG 23.248325 23.175492 78.059432
CG 41.560288 9.727472 65.682405
CG 58.956412 60.333817 71.962857
CG 70.115878 49.871974 70.268399
CG 88.620578 41.903328 49.922434
CG 113.687934 54.985957 52.914036
CG 106.383835 65.931879 43.370013
CG 119.203636 30.187548 124.357241
CG 109.328473 53.922602 49.018963
CG 1.434020 69.550690 49.686767
CG 98.703774 45.173629 31.615489
CG 0.377045 50.935307 26.331333
CG 31.324576 40.065030 124.272587
CG 13.838913 29.998182 31.720799
CG 113.961496 30.759379 38.771223
CG 1.837035 46.579223 45.907872
CG 118.298611 37.651031 28.270342
CG 4.327108 36.449943 22.216557
CG 28.322982 33.551372 29.214218
CG 46.269837 49.741419 7.393376
50
frame
CG 98.115521 62.267024 111.297324
CG 88.891661 42.572830 6.649561
CG 81.621494 50.820547 104.870848
CG 106.323586 64.273245 100.899508
CG 96.649266 86.388485 105.277482
CG 76.597843 48.822136 122.263758
CG 117.064454 59.425207 121.862268
CG 11.374209 69.576833 92.076493
CG 28.609092 76.174491 50.934505
CG 44.551632 57.826396 81.522101
CG 6.866288 48.131820 85.250093
CG 23.655520 93.978801 108.643646
CG 43.846556 101.182902 59.295569
CG 50.912481 79.059513 78.691201
CG 51.318107 73.766126 73.291357
CG 86.903756 39.561366 49.645548
CG 50.257858 76.853774 99.105462
CG 52.850855 75.668744 66.949185
CG 57.016386 82.456683 52.636004
CG 39.750316 105.730443 56.997367
CG 56.074153 119.337834 71.901002
CG 43.318503 4.045282 110.805712
CG 71.001827 120.772421 99.223400
CG 72.992012 14.438485 92.395876
CG 55.007570 0.462060 88.049176
CG 70.014973 17.791840 61.360358
CG 59.365006 120.437631 58.377465
CG 51.410082 124.546702 70.617300
CG 57.380416 89.442415 39.496221
CG 69.777862 119.993348 51.998669
CG 56.963241 6.785068 67.913200
CG 56.545166 48.975131 71.009407
CG 46.507404 14.848505 75.033383
CG 49.722007 47.429818 95.460595
CG 79.486449 51.020578 69.576940
CG 52.931253 38.389425 70.050728
CG 84.793421 31.463866 80.150807
CG 110.279858 70.363367 119.817478
CG 104.201936 58.397327 110.831544
CG 119.114454 28.080158 8.381333
CG 29.699469 61.906506 12.096282
CG 124.051023 32.208897 37.274554
CG 111.540260 38.980267 53.648343
CG 4.008113 58.612949 25.071411
CG 24.983151 59.953125 19.852385
CG 20.096077 25.216689 113.654024
CG 31.275228 39.284814 38.116288
CG 34.149011 32.066493 3.523561
CG 40.695339 27.953863 11.300177
CG 18.160188 23.808805 18.072927
50
frame
CG 86.654561 46.419855 119.797089
CG 98.602272 66.757090 100.346824
CG 101.577580 68.548382 114.965300
CG 82.096972 53.520707 122.698155
CG 99.000688 45.865439 114.490683
CG 3.717198 75.251372 93.803439
CG 120.441831 74.272328 79.692055
CG 123.181355 57.471130 96.646576
CG 2.023318 54.425875 114.593452
CG 8.597419 79.594797 89.539527
CG 43.889433 93.205147 69.683127
CG 43.606682 63.772274 63.969833
CG 33.842652 58.439439 90.695449
CG 48.772461 72.032177 75.005317
CG 54.582579 78.789065 75.220321
CG 39.567784 91.043527 84.332394
CG 61.438337 71.466251 50.002443
CG 60.545178 79.056522 63.182160
CG 50.159990 97.598464 83.990351
CG 57.616832 100.015360 87.685851
CG 55.155267 104.332491 81.934909
CG 64.255677 116.069103 67.223093
CG 51.637401 3.981095 80.896943
CG 54.583452 0.543899 84.107665
CG 69.015745 4.975664 76.158462
CG 57.309007 119.682903 82.343421
CG 59.738179 119.635439 67.878696
CG 68.087549 120.580630 51.845214
CG 60.314352 16.435501 71.005585
CG 50.120503 12.379097 68.176000
CG 56.016281 5.478210 59.535085
CG 58.027733 5.053053 70.777985
CG 66.921262 40.384711 72.515490
CG 63.560129 33.150357 63.800955
CG 57.158842 29.399115 85.794951
CG 89.454472 53.428549 101.943884
CG 88.097941 59.717172 99.959241
CG 86.935078 30.181681 93.525353
CG 117.055268 41.964037 117.720561
CG 119.132110 60.466621 8.095783
CG 101.176582 37.834159 21.495887
CG 3.894181 53.027928 15.389386
CG 24.762223 55.211024 7.860501
CG 12.788122 32.267224 22.558927
CG 6.569000 32.659731 31.161644
CG 22.187836 51.957039 32.591177
CG 26.833269 37.764611 0.015567
CG 23.176815 29.541626 16.394994
CG 20.636775 30.370241 20.418391
CG 39.206165 30.532926 9.753728
50
frame
CG 101.099330 73.778539 101.710857
CG 85.104035 55.949083 116.709179
CG 100.819605 45.414121 121.188440
CG 0.807333 72.578146 94.453060
CG 2.695660 63.432878 89.734676
CG 122.048882 55.685834 96.515571
CG 115.754662 46.053368 108.230167
CG 124.761489 82.679456 93.210243
CG 7.810695 91.388912 91.630663
CG 5.633968 65.572225 85.967381
CG 21.449557 58.054231 111.514128
CG 32.830051 62.668705 70.187595
CG 53.441801 70.908404 75.551176
CG 33.276753 72.424373 73.212577
CG 37.706159 65.428512 70.745297
CG 31.630053 101.698488 78.283496
CG 46.196094 106.702165 74.793766
CG 45.223441 114.273550 99.204511
CG 63.845535 93.363454 79.643998
CG 76.480998 92.416925 76.517907
CG 55.265824 104.598516 85.517200
CG 61.536310 98.195126 66.868862
CG 56.017765 106.826254 55.983073
CG 51.460737 100.883775 54.475480
CG 50.854237 115.810009 64.204106
CG 56.867984 111.186791 71.412893
CG 67.484278 20.084145 86.822033
CG 55.320997 15.025063 87.724670
CG 58.084611 29.015666 83.224858
CG 60.309528 13.689205 72.632361
CG 66.404896 41.773261 77.651905
CG 62.075307 8.928220 61.960979
CG 68.273857 11.503457 69.586384
CG 92.905591 14.339254 83.079133
CG 86.803988 45.651241 98.757174
CG 90.808109 25.771316 91.088089
CG 91.024595 33.365660 120.165811
CG 100.325874 48.019601 121.921069
CG 82.807187 41.191417 3.586800
CG 94.213996 45.987513 104.369754
CG 117.007171 45.015277 109.144163
CG 3.285226 53.642691 116.057472
CG 120.747821 31.729863 1.480755
CG 21.359856 46.835088 15.295248
CG 26.910261 35.791074 121.620484
CG 13.344703 30.622698 35.814221
CG 0.175224 28.806646 25.813987
CG 22.574100 48.521154 31.623856
CG 27.966844 40.521770 2.829175
CG 22.889355 37.747919 18.503142
50
frame
CG 101.059720 56.611494 115.994797
CG 8.180266 73.118410 98.483202
CG 1.123951 78.675193 70.588574
CG 122.137519 47.372801 96.362881
CG 119.397691 59.893703 109.228684
CG 117.623216 68.825232 101.169279
CG 16.967603 89.883933 94.740154
CG 7.282353 56.838784 95.766427
CG 9.186763 47.723211 88.601956
CG 31.182001 68.259631 93.192216
CG 7.522312 66.151413 73.855684
CG 4.902496 77.501023 115.590234
CG 9.310360 72.430780 80.240814
CG 28.157477 85.957921 79.528545
CG 32.651807 112.101805 82.335440
CG 52.769224 78.943109 77.386259
CG 32.436536 97.664775 113.495023
CG 52.069423 102.142008 76.935237
CG 51.431355 117.350055 81.198203
CG 38.597045 114.795180 76.795655
CG 73.112184 90.578357 48.726902
CG 55.159010 88.428555 70.577809
CG 60.134526 80.592685 67.310569
CG 63.857353 99.732271 60.519526
CG 52.982454 107.593216 65.481149
CG 54.434832 15.394517 63.197260
CG 42.470494 4.467896 73.574685
CG 55.587630 22.928128 93.445699
CG 67.956067 18.869360 85.485382
CG 72.803562 34.338007 89.546503
CG 69.949273 10.681658 86.634072
CG 94.218803 46.120288 95.969098
CG 92.696727 30.091101 99.836367
CG 80.270225 20.844346 99.562845
CG 109.587608 0.090361 93.355076
CG 93.269575 18.637683 115.733124
CG 90.773208 23.089406 108.839005
CG 90.813541 37.770717 113.764192
CG 100.116222 42.915208 97.312074
CG 106.691191 31.111307 115.734844
CG 108.289322 45.710822 104.802499
CG 103.852248 24.364141 105.418280
CG 124.581159 40.390739 109.089076
CG 118.991397 38.907815 111.749046
CG 119.007880 38.962554 17.854919
CG 16.122472 36.311141 112.105252
CG 35.066730 47.145186 20.134108
CG 8.088015 30.776090 15.762455
CG 5.423100 41.895108 38.782402
CG 8.426408 55.571915 21.426349
50
frame
CG 38.266320 75.627625 68.942054
CG 5.293046 54.284907 86.771360
CG 1.647732 61.067776 115.334806
CG 122.979777 83.915199 99.604897
CG 10.622800 88.816747 78.323448
CG 18.726934 63.689088 93.401022
CG 4.621341 48.611956 89.820264
CG 24.410671 60.638455 95.263642
CG 21.315207 67.938008 91.888330
CG 119.262021 62.599740 104.093363
CG 9.679593 75.029383 84.410547
CG 19.890427 84.144473 74.051946
CG 122.481964 105.942242 100.217422
CG 14.771025 93.984395 115.387688
CG 17.333891 85.964142 114.765758
CG 29.645147 106.776155 98.511682
CG 51.393843 105.028261 61.981851
CG 40.698410 87.147729 71.461117
CG 35.577599 90.157275 75.553130
CG 47.382482 92.254611 65.166184
CG 35.994071 102.060810 78.149696
CG 53.486068 109.578109 60.401275
CG 62.983898 108.366629 64.635052
CG 54.449073 116.969046 81.958052
CG 60.311352 112.229267 74.852176
CG 55.786977 116.742661 84.013424
CG 62.598497 122.552478 68.037027
CG 68.608605 13.863709 56.385252
CG 60.230802 6.378963 84.880433
CG 83.088991 30.719749 109.202375
CG 100.462087 30.241362 112.434322
CG 87.662792 21.125882 123.806749
CG 104.227991 17.266915 115.357232
CG 106.557558 36.268553 121.324912
CG 79.976956 22.555563 120.417233
CG 93.099251 25.022853 108.157378
CG 112.262126 17.451154 84.280044
CG 103.471546 0.542346 92.727221
CG 115.100502 17.414777 100.163940
CG 104.096314 29.287793 102.432687
CG 101.238516 20.780443 107.335292
CG 106.213416 33.416310 111.943227
CG 100.605947 41.526200 113.313006
CG 103.618404 21.802938 97.518328
CG 3.308100 43.843253 106.475858
CG 117.186640 48.202206 121.313567
CG 113.608487 43.034218 1.755599
CG 8.859863 52.253349 123.793262
CG 8.925974 56.545419 22.275148
CG 119.701304 34.889914 38.929553
50
frame
CG 24.268896 59.014453 86.707313
CG 34.950402 89.476366 76.256983
CG 41.291111 82.266723 70.171225
CG 34.296639 70.913950 80.704150
CG 16.432249 46.759315 102.133848
CG 20.792961 75.035830 84.718309
CG 22.173175 69.050527 87.036602
CG 1.079198 72.611612 90.501044
CG 1.413607 76.358939 94.008159
CG 18.564245 84.324372 70.417818
CG 11.950708 99.222422 122.443203
CG 123.000916 86.718697 108.401650
CG 32.480833 81.343960 113.324822
CG 12.912064 104.022085 89.850094
CG 20.570985 100.293238 80.074528
CG 4.583217 97.992169 98.697285
CG 13.796576 77.544628 87.203666
CG 24.077732 101.863910 86.454096
CG 41.179320 86.138177 56.808502
CG 47.171299 87.162814 66.141762
CG 34.606687 108.959288 80.776104
CG 42.219823 116.371202 83.834973
CG 33.092733 13.278578 87.590761
CG 51.238852 121.372804 74.841056
CG 65.813717 4.651745 76.492790
CG 73.148183 110.287414 69.271168
CG 81.377840 124.114522 89.556875
CG 79.485006 113.045295 106.552567
CG 100.889304 20.014005 95.570359
CG 84.096039 114.595639 87.258451
CG 86.186724 17.804269 117.659804
CG 99.730646 13.074258 122.326445
CG 84.015931 31.235177 11.559633
CG 96.402675 13.051015 124.735939
CG 113.820062 42.042720 109.871428
CG 117.219222 15.172560 93.217542
CG 97.923913 16.048026 120.043366
CG 115.892847 23.110504 95.523662
CG 102.068189 120.421029 97.456954
CG 107.375446 0.775900 89.550631
CG 108.151131 15.831312 105.044735
CG 104.571740 28.487374 97.995189
CG 103.968064 15.482603 100.347901
CG 111.322331 54.623544 2.740597
CG 88.380204 37.432680 95.730774
CG 98.921753 39.983409 114.765404
CG 102.254720 51.513069 105.816533
CG 100.213852 52.443289 23.811148
CG 104.063652 32.893561 119.886206
CG 8.284919 55.320057 121.335775
50
frame
CG 38.432166 99.261750 77.756465
CG 51.783825 66.375081 81.882231
CG 39.491376 56.613366 71.171421
CG 52.903488 64.900097 68.838895
CG 54.270090 80.372864 69.101701
CG 17.855021 66.910136 85.314438
CG 11.744379 86.905634 96.989362
CG 18.264434 94.617576 75.237349
CG 13.731007 98.425738 98.946413
CG 8.330444 100.763775 122.344221
CG 16.316210 79.002759 92.142699
CG 27.858286 103.030253 105.993562
CG 11.805111 98.226076 86.847844
CG 9.129591 80.115268 93.615276
CG 12.619527 85.143833 92.356479
CG 21.398291 82.385373 64.974613
CG 5.838578 99.102064 89.110064
CG 14.240310 85.829090 80.251389
CG 12.300560 107.114397 105.820918
CG 10.483062 4.041026 102.909152
CG 47.546140 113.907318 66.629589
CG 35.428804 110.420687 83.781905
CG 49.201314 110.498270 83.497078
CG 57.496471 0.631189 80.339070
CG 54.688706 5.877579 96.153272
CG 78.500063 14.483251 104.406167
CG 93.044217 4.798504 102.386851
CG 99.481935 114.881883 101.724740
CG 94.838293 106.679114 119.413403
CG 101.187792 124.601771 4.030454
CG 86.808467 119.772824 106.916133
CG 86.704591 5.316764 96.568015
CG 105.219526 16.485235 99.380162
CG 103.860366 15.291029 100.927857
CG 107.244144 0.698393 122.905335
CG 107.487501 21.850338 5.016004
CG 116.534885 18.860170 104.979192
CG 105.856427 9.771898 109.980774
CG 102.756714 26.243274 109.586764
CG 110.550574 16.500265 105.085254
CG 106.994885 3.062687 84.954036
CG 108.287327 6.998240 103.184421
CG 103.047469 31.734813 100.056968
CG 89.200931 25.299286 93.278073
CG 89.343331 35.064093 3.694047
CG 88.502034 50.040017 124.903364
CG 86.861503 33.109604 118.904773
CG 94.549718 34.151186 84.264388
CG 104.234982 58.994911 97.670205
CG 79.467468 46.390286 96.997038
50
frame
CG 71.697148 59.654352 66.581925
CG 47.364029 77.895973 66.497830
CG 55.799110 93.349164 83.197939
CG 31.526178 73.942964 84.527795
CG 28.236064 88.678177 67.214186
CG 56.877975 96.691527 66.131429
CG 43.969049 100.385137 72.153976
CG 28.924058 95.522062 123.400124
CG 29.526173 94.301781 95.607057
CG 25.936964 99.625641 94.844683
CG 16.443799 109.954836 81.739345
CG 13.477226 84.331883 86.019004
CG 2.105876 84.478542 83.077613
CG 30.331291 87.804473 81.835655
CG 4.698932 87.324301 86.042480
CG 10.237699 84.646885 97.001899
CG 20.544963 104.279932 90.975615
CG 7.096358 118.121038 95.482009
CG 8.572442 123.747674 92.374194
CG 18.284066 102.615273 89.273740
CG 9.701048 115.056193 121.417214
CG 38.440416 6.732663 91.501270
CG 63.591046 114.014302 82.304374
CG 61.503125 122.993160 116.058350
CG 82.961810 112.800823 106.300872
CG 76.940427 123.701922 115.745792
CG 71.227843 115.734278 123.494213
CG 91.785570 22.010262 1.021323
CG 83.622469 115.093053 112.995576
CG 96.188570 124.281370 105.353701
CG 117.419407 112.953723 103.374862
CG 109.100469 121.599830 110.433445
CG 105.242223 93.114827 92.134498
CG 103.701803 5.740272 106.146253
CG 100.119121 2.469845 93.856855
CG 97.514577 3.246979 109.157786
CG 106.800220 10.166865 119.234668
CG 103.943073 19.762753 4.928940
CG 122.826390 19.473759 102.156781
CG 102.581410 22.151820 113.946285
CG 99.752925 38.870846 116.928196
CG 93.252106 22.754163 97.683698
CG 90.284482 16.101209 112.487363
CG 89.183786 6.015801 110.445854
CG 101.539587 27.430636 104.333174
CG 86.991672 14.603143 75.627298
CG 89.032000 43.115744 102.468628
CG 72.314309 48.506208 88.620834
CG 56.235940 38.575883 87.135736
CG 68.275108 40.127089 66.947492
50
frame
CG 55.913273 72.141448 72.051089
CG 62.005055 75.256982 71.940162
CG 50.633717 82.095547 60.318667
CG 56.595233 119.615281 62.548958
CG 51.381002 103.996951 95.945722
CG 34.199403 107.099006 109.485792
CG 49.979321 93.402837 87.552248
CG 61.848804 102.340759 59.059134
CG 45.730054 106.800574 72.950247
CG 33.855268 85.442993 68.539011
CG 23.167910 89.003648 96.303604
CG 15.942472 93.506278 68.004882
CG 28.931877 94.279799 85.406802
CG 120.929018 95.860877 87.733139
CG 23.072904 102.839194 86.096491
CG 11.513534 4.103013 106.372998
CG 5.437793 105.583800 94.419802
CG 17.915831 107.732208 105.895973
CG 23.426560 102.624871 97.457791
CG 31.387074 0.176141 97.948731
CG 34.766985 124.684693 94.486310
CG 44.253613 106.038322 1.996086
CG 35.246925 5.400933 27.147368
CG 65.045847 115.405787 115.557806
CG 69.793379 115.847660 121.923691
CG 73.869992 111.563479 2.775237
CG 81.687000 120.424865 118.517248
CG 65.436908 106.164257 115.054368
CG 100.126467 19.103860 109.234502
CG 98.378618 121.652920 102.857956
CG 95.556995 111.922919 107.083420
CG 115.598067 103.377026 103.821882
CG 108.507896 0.008836 114.662250
CG 104.564318 91.687126 105.309095
CG 103.481963 114.259967 102.628928
CG 107.404943 122.781404 93.821618
CG 96.021043 4.875525 101.773441
CG 106.417568 15.214322 97.955747
CG 88.025376 18.719690 11.332366
CG 96.637336 30.655748 118.862753
CG 98.919797 21.647999 0.331555
CG 88.925851 31.682145 5.837657
CG 94.434023 22.951199 108.447467
CG 98.303672 30.639958 92.756969
CG 78.121141 9.187868 69.925054
CG 80.657216 20.609726 93.160812
CG 65.297097 21.159926 52.684662
CG 61.207837 21.175589 74.825617
CG 58.060024 24.356781 62.500229
CG 50.108339 39.448302 84.916492
50
frame
CG 42.956180 105.183202 66.491555
CG 57.935501 107.328817 69.461732
CG 56.746117 96.122720 86.098625
CG 63.525304 88.891363 99.460741
CG 70.323115 101.316269 74.813167
CG 66.450724 109.356562 54.799556
CG 50.376075 116.298312 88.619802
CG 35.091829 97.219153 67.837614
CG 44.999971 83.343160 72.752506
CG 50.476514 103.692274 57.569080
CG 52.790308 87.490715 52.926396
CG 32.974525 100.935852 89.904678
CG 23.294304 110.862866 88.604375
CG 21.490925 3.083711 93.621833
CG 12.674552 123.042028 102.812268
CG 14.005781 102.331387 81.785759
CG 26.967044 117.340082 105.006884
CG 33.046208 121.464552 96.628888
CG 36.586108 117.143631 109.571630
CG 38.949820 109.100177 13.121749
CG 57.719557 109.795054 6.782535
CG 47.975585 121.722546 0.247857
CG 54.479675 109.933942 118.708815
CG 45.847957 108.620422 23.499337
CG 35.710061 2.153310 29.836332
CG 59.013463 112.627199 116.353633
CG 84.967588 1.608415 110.140674
CG 97.847295 107.344461 102.814477
CG 81.643310 94.218390 111.925708
CG 87.210084 102.937483 118.729714
CG 91.610305 20.704598 111.637880
CG 73.490438 19.089652 102.953581
CG 87.727600 54.851628 21.441476
CG 113.767650 95.064181 51.687716
CG 120.953219 114.671799 6.154918
CG 115.051098 17.971707 105.422955
CG 98.832753 7.167615 107.992574
CG 86.935313 3.336614 104.125163
CG 82.826195 13.517786 104.007978
CG 89.132425 13.205801 124.402631
CG 82.263743 13.175098 118.707854
CG 102.327769 24.005577 107.284497
CG 87.326532 28.166183 91.855976
CG 71.914875 32.206059 96.485627
CG 66.592125 29.839642 82.305555
CG 62.978482 30.194056 65.518303
CG 54.000156 122.243203 64.247512
CG 57.797963 8.709706 64.547301
CG 60.675770 23.347836 68.616796
CG 53.442447 2.574238 62.895613
50
frame
CG 62.843040 5.858955 85.892982
CG 41.179156 117.828976 92.823672
CG 66.067724 0.462981 81.371730
CG 62.786044 101.406587 59.631946
CG 53.273733 103.139369 71.005313
CG 64.463534 82.398458 73.366627
CG 63.330051 87.242872 39.202962
CG 60.952153 106.364244 72.698551
CG 52.164853 109.399759 60.437321
CG 38.892882 101.203703 90.997054
CG 38.419452 122.043795 77.574226
CG 57.331801 2.359283 72.473238
CG 37.441700 120.631418 74.055457
CG 52.566539 105.232492 86.176515
CG 31.377342 119.496704 93.038670
CG 45.883234 2.233613 103.323191
CG 43.227114 2.855369 104.688225
CG 38.140679 108.332022 122.469593
CG 55.270977 123.124384 14.999935
CG 57.408822 115.486298 115.916843
CG 43.594876 107.466582 17.173020
CG 48.533412 108.175364 24.782778
CG 54.281277 106.809264 13.594535
CG 44.938574 0.985957 122.710445
CG 76.580328 105.523471 97.395367
CG 66.305860 118.203331 7.961865
CG 39.911585 88.710235 15.307056
CG 70.191667 121.526736 3.551562
CG 77.640122 123.981722 112.542928
CG 73.223798 18.190731 104.565569
CG 72.496895 110.963501 117.065481
CG 93.536569 117.484360 10.171417
CG 92.402363 33.353387 63.948572
CG 80.692566 56.975407 100.049534
CG 90.287768 110.098741 20.911550
CG 88.129358 33.058158 124.464845
CG 108.029416 31.319998 110.365015
CG 96.509629 19.374698 4.588164
CG 101.828646 0.926468 95.111928
CG 83.554989 123.228809 83.445482
CG 82.462031 22.221740 74.844657
CG 60.123728 10.451583 80.833398
CG 58.764104 21.505516 97.941890
CG 63.621869 14.454875 75.220608
CG 65.093562 23.805963 88.477950
CG 48.714338 8.489296 71.121555
CG 65.277064 41.917127 97.072196
CG 55.474069 11.342986 58.910992
CG 49.339059 99.246271 62.957547
CG 69.161986 119.657478 48.987873
50
frame
CG 51.358560 118.554385 85.972001
CG 68.594224 120.445991 72.780096
CG 52.976011 108.651943 76.149202
CG 54.797349 108.489306 84.443015
CG 65.925243 101.257252 63.591265
CG 58.274735 108.784187 59.347073
CG 54.044063 106.110705 79.895491
CG 50.879201 93.612210 67.947772
CG 51.405968 102.580043 71.630151
CG 57.491831 119.303134 62.128164
CG 50.593989 110.798311 72.980032
CG 37.187853 106.359728 85.647535
CG 45.655100 117.537374 87.686535
CG 40.731985 5.271182 86.900267
CG 49.306917 120.730418 92.109623
CG 41.212032 110.942140 102.130885
CG 44.342529 115.594121 116.477892
CG 52.807485 1.709558 113.290177
CG 42.099969 112.840257 116.256138
CG 42.409321 111.000286 17.782098
CG 56.029638 116.249409 6.977459
CG 52.943574 116.484524 119.880492
CG 55.589854 113.452624 122.698888
CG 63.319457 103.313576 10.680943
CG 43.612059 110.055577 22.315615
CG 56.384065 111.458932 119.929601
CG 82.144004 3.745767 107.725772
CG 64.880319 118.096839 117.711893
CG 60.444499 111.163982 4.298185
CG 79.066509 111.667794 13.136463
CG 86.660044 23.286055 27.149963
CG 75.019135 42.574241 48.722463
CG 80.647415 49.017232 61.758452
CG 94.222506 78.643507 71.276981
CG 94.897634 90.973677 76.182556
CG 95.299669 92.976724 111.277696
CG 88.118899 116.671440 121.811119
CG 91.783609 12.074931 95.603124
CG 86.847405 25.297220 100.885469
CG 84.272089 20.652135 102.119599
CG 75.435237 5.010917 97.435477
CG 78.178405 13.914824 84.603758
CG 71.657944 15.024734 73.758316
CG 58.278967 17.836899 86.575052
CG 57.509323 20.707616 83.701575
CG 64.973285 21.625743 80.112892
CG 53.456440 116.282209 61.327040
CG 60.460251 2.489992 71.803499
CG 67.905614 21.504555 66.284594
CG 51.590125 118.724826 65.329480
50
frame
CG 62.209987 98.680773 61.881378
CG 57.618046 103.543012 76.093837
CG 57.098263 100.785387 70.538103
CG 62.779820 121.406891 69.006998
CG 50.112529 117.280594 86.601768
CG 44.868927 118.666300 85.269384
CG 52.051646 116.684628 85.565838
CG 54.173879 123.448328 61.507873
CG 53.801515 109.212709 82.983851
CG 49.034984 96.059159 69.994029
CG 55.130060 101.120608 80.186292
CG 48.058936 119.940636 77.380501
CG 54.133943 111.915666 91.356932
CG 36.348344 109.463616 102.304487
CG 51.428109 114.651647 109.209057
CG 50.545532 1.793173 100.836315
CG 49.138009 109.807154 102.212528
CG 42.633114 109.023211 119.307941
CG 47.136763 113.276332 113.508885
CG 50.924950 0.371222 107.826427
CG 50.491270 117.665176 101.676345
CG 57.245796 108.967655 2.531302
CG 49.810643 115.891358 12.006143
CG 58.085229 109.544059 121.410201
CG 66.264457 4.466029 0.232288
CG 64.183363 111.524684 0.534357
CG 58.474149 123.982271 12.473311
CG 69.646322 111.403204 9.118358
CG 88.662638 24.337433 27.443109
CG 67.760202 28.467733 62.404800
CG 67.621872 48.997585 75.594187
CG 81.688655 71.859358 72.258830
CG 88.331198 84.363474 44.427023
CG 86.945487 73.977688 52.484486
CG 81.479406 54.436023 40.236149
CG 91.401040 60.669832 37.946549
CG 77.328477 79.430379 58.440561
CG 78.340485 93.050820 88.659008
CG 65.954342 117.530866 115.177572
CG 80.987408 21.097212 100.574902
CG 79.543904 23.336554 100.387713
CG 80.886909 23.174937 104.931254
CG 74.590049 8.050932 89.615634
CG 79.346859 15.166837 81.687852
CG 64.352083 113.469502 54.579608
CG 65.488147 2.520548 77.381925
CG 64.119772 6.532223 63.116912
CG 61.185904 6.452867 79.337011
CG 53.258116 6.486093 70.453882
CG 61.020798 32.566658 87.526128
50
frame
CG 63.319240 90.316598 63.463936
CG 53.958390 93.833939 56.607958
CG 62.112889 117.345409 73.440669
CG 44.112388 103.539940 80.041460
CG 45.910512 122.947870 82.001252
CG 59.514842 1.935173 82.481121
CG 48.417292 124.292039 72.998826
CG 46.275890 116.811774 106.282588
CG 51.139697 119.113108 76.510668
CG 50.168962 122.333252 95.171576
CG 48.055322 115.745541 90.646649
CG 59.803839 94.617084 95.303201
CG 48.068402 103.645102 96.287226
CG 71.340908 109.725649 94.493616
CG 44.040262 106.966713 98.484196
CG 44.671795 99.710580 118.174950
CG 49.815464 120.565260 109.106507
CG 51.674732 118.986965 89.381563
CG 57.286500 119.865727 95.622858
CG 55.503935 103.507719 97.180045
CG 46.350221 112.084553 0.250443
CG 50.322057 124.429951 106.614287
CG 65.891592 122.573957 100.869912
CG 55.192075 8.365276 123.458951
CG 66.104554 111.357768 119.606806
CG 71.090370 7.167363 21.842588
CG 70.222664 6.271822 42.990317
CG 72.355924 46.302890 76.143731
CG 57.495406 47.740481 83.806085
CG 79.128170 82.452534 60.144479
CG 87.427178 77.130608 46.864022
CG 79.598790 56.696312 50.140836
CG 70.486067 50.830357 64.651875
CG 72.191832 50.910601 32.394451
CG 76.722873 77.369743 38.145135
CG 58.798984 79.053314 34.356287
CG 71.470963 59.797652 32.369197
CG 70.430456 71.449075 47.645735
CG 82.472961 76.950942 45.521161
CG 66.485885 85.574573 91.327970
CG 72.211386 122.667858 102.605259
CG 73.717042 7.527979 90.194771
CG 78.878792 9.999280 92.326385
CG 79.700062 117.661157 80.311840
CG 87.978077 10.473558 91.525879
CG 71.206338 117.499716 62.281865
CG 68.905231 12.825014 86.581132
CG 62.876952 27.240505 75.835129
CG 61.075619 21.090075 95.075659
CG 61.742554 14.250679 78.656775
50
frame
CG 48.946345 111.049409 68.395400
CG 57.878476 103.582606 74.002480
CG 43.419403 97.893231 69.852763
CG 56.063207 112.560785 70.847244
CG 62.106966 111.622770 64.370331
CG 40.997385 106.308637 86.713219
CG 49.588468 121.660051 94.852562
CG 53.755144 1.033827 89.802957
CG 43.980873 3.517529 105.208535
CG 54.383159 118.874571 112.794434
CG 53.612427 115.890929 102.707109
CG 56.492041 118.932255 108.762611
CG 56.838841 106.826569 100.550714
CG 47.979703 91.616588 107.308094
CG 61.344357 104.166674 99.656956
CG 66.259139 110.316594 78.529151
CG 53.538370 105.616769 90.417736
CG 58.955351 104.746191 104.298168
CG 48.342701 110.222663 109.021755
CG 50.928664 124.478115 104.488895
CG 71.691114 124.598714 83.453390
CG 59.666015 121.699607 97.632664
CG 55.112635 120.057306 115.331354
CG 71.793453 6.123350 0.154641
CG 63.631457 22.431095 35.664630
CG 62.182742 51.008031 64.284670
CG 71.623033 60.938064 68.690946
CG 71.965282 80.416675 64.585730
CG 78.758338 72.798017 55.744177
CG 76.721554 56.913196 64.170071
CG 62.188751 50.458815 65.719158
CG 67.479639 64.171502 31.391546
CG 73.112487 64.691478 26.182392
CG 57.180797 69.764284 47.419389
CG 52.375655 54.307274 48.816999
CG 64.173303 58.106254 46.681385
CG 68.723622 82.215950 37.843513
CG 59.726150 70.957043 26.724807
CG 65.806270 67.131317 34.926336
CG 73.188963 64.829544 25.228486
CG 74.950046 51.346035 34.193514
CG 70.894961 62.324121 69.153534
CG 79.748443 108.701293 88.825196
CG 70.916637 1.026071 88.761692
CG 73.888538 18.451327 103.592233
CG 83.690984 32.195497 104.868292
CG 80.177169 17.337496 99.657624
CG 75.209358 0.390481 83.349945
CG 77.733404 20.939060 79.700280
CG 64.000515 14.305379 87.890122
50
frame
CG 41.930096 112.411963 81.441857
CG 42.686927 1.702760 79.226555
CG 55.620268 110.421531 67.079680
CG 53.375096 104.467973 73.956989
CG 41.224994 96.574810 91.624482
CG 57.698271 115.753423 75.609354
CG 54.972761 109.216300 95.456557
CG 47.041140 112.492580 95.494364
CG 59.439947 113.469184 118.401033
CG 52.978557 121.764445 97.830805
CG 56.286358 119.587545 121.850833
CG 43.649351 116.019516 113.658699
CG 62.657816 115.284043 112.102493
CG 55.656529 124.830821 91.046972
CG 64.720220 103.476949 90.545632
CG 57.309305 98.779965 100.884650
CG 67.674500 95.682413 96.014314
CG 59.313380 113.731042 93.363831
CG 70.400638 113.393670 81.622377
CG 68.196506 119.454904 98.563944
CG 51.401826 121.254223 108.579706
CG 73.881635 5.481566 1.826822
CG 72.278955 31.236261 21.474378
CG 61.026252 38.806192 44.083144
CG 64.754762 77.219518 58.957414
CG 73.238383 69.588020 37.794555
CG 68.595886 91.863460 46.118763
CG 68.849817 50.353901 44.201360
CG 74.966259 65.272661 48.758340
CG 57.102890 58.475384 37.429391
CG 65.850983 66.274711 30.305075
CG 54.316355 63.589197 67.097573
CG 42.933947 62.774904 52.473204
CG 62.264170 65.285369 42.408278
CG 65.269985 71.126693 29.287225
CG 59.569900 66.307710 37.389195
CG 45.254051 52.517903 46.562665
CG 70.059619 55.758235 33.128976
CG 58.035014 56.341412 25.175421
CG 66.438510 50.989050 12.391526
CG 69.336901 57.931997 24.416356
CG 76.032170 68.990849 24.623430
CG 64.547350 54.293882 40.591955
CG 78.649976 102.289506 94.106996
CG 70.923862 108.219514 86.273694
CG 72.955148 4.248286 111.337192
CG 80.893746 20.126001 92.383032
CG 87.455157 28.282708 118.589426
CG 79.461260 1.634390 93.849340
CG 94.544908 11.501696 85.829977
50
frame
CG 48.875093 2.289217 78.705982
CG 40.564691 104.872815 78.946970
CG 38.939650 121.751101 104.075785
CG 39.799245 120.033994 91.904117
CG 55.339661 120.091395 87.145579
CG 54.660658 101.632393 100.301450
CG 50.988961 97.671225 96.041362
CG 62.367342 104.735017 104.578207
CG 57.348631 103.744435 89.059950
CG 48.174021 106.340808 115.480395
CG 55.550317 115.163039 106.367327
CG 67.184712 121.830131 92.732286
CG 50.048081 122.167843 102.023997
CG 66.203104 113.691040 112.162200
CG 56.032539 118.052601 109.642283
CG 60.768087 120.457150 102.959020
CG 70.089225 122.025698 89.428041
CG 73.688039 106.718423 88.967675
CG 69.608300 114.280371 107.203866
CG 76.587843 118.652347 112.643168
CG 80.727760 21.886210 28.248813
CG 61.464535 46.131379 43.158673
CG 64.867015 66.535544 48.759186
CG 74.519021 85.606708 40.883674
CG 77.801077 71.726405 18.460796
CG 66.252240 60.764989 32.823114
CG 67.018722 49.145027 26.610568
CG 62.183087 72.986814 18.842958
CG 44.556262 66.330907 20.846092
CG 57.065584 71.329471 41.193930
CG 49.846264 71.704337 48.294872
CG 53.528908 62.793688 31.283863
CG 64.252686 70.206731 45.684369
CG 49.965671 60.490740 47.099541
CG 44.368131 61.350477 54.183208
CG 56.860120 59.918422 29.413101
CG 69.408187 47.533239 12.033037
CG 51.442073 45.996258 29.206087
CG 62.439887 44.940165 29.143188
CG 62.187945 60.152282 45.409869
CG 56.282022 70.403717 33.115954
CG 64.073888 79.035868 38.863348
CG 71.447424 81.787633 37.545350
CG 69.065345 54.305876 23.042746
CG 78.147234 68.028353 51.991416
CG 78.683687 84.452417 74.052074
CG 74.618706 96.738791 102.203810
CG 85.676131 0.690717 91.130452
CG 102.897367 20.225016 112.750627
CG 99.257156 12.151813 121.575452
50
frame
CG 36.640284 110.027080 99.321282
CG 49.039892 5.617954 101.950336
CG 44.951976 123.419549 89.008365
CG 47.665573 111.883871 109.343570
CG 46.156511 115.294875 110.349870
CG 42.862103 112.750136 111.999768
CG 60.178683 116.284181 95.009220
CG 52.108030 95.993837 103.176190
CG 48.965378 102.194568 99.507299
CG 75.420941 104.372448 87.267028
CG 56.766978 104.813620 74.538491
CG 59.285171 105.098710 113.978500
CG 63.807307 114.326043 102.430352
CG 58.950159 120.272300 103.237573
CG 64.998778 11.030258 102.500348
CG 78.976939 2.298358 98.951315
CG 60.071380 5.462672 122.389889
CG 75.296507 12.366711 8.375060
CG 79.603001 27.320852 31.030644
CG 68.199471 44.852395 46.787612
CG 77.970560 57.550953 34.524495
CG 83.289915 70.022726 26.463493
CG 82.224601 60.765955 21.811904
CG 70.101317 55.800706 20.923556
CG 62.114972 44.155215 26.121271
CG 64.804025 78.734681 14.525165
CG 54.203655 60.575593 1.968064
CG 48.796852 70.695865 27.887284
CG 53.543712 63.812115 28.101436
CG 50.345348 73.625358 14.778263
CG 47.572549 65.850939 29.056036
CG 54.033813 75.056312 30.357604
CG 47.388853 62.021611 35.676182
CG 52.294438 62.238114 26.733722
CG 65.411429 45.158789 21.485308
CG 47.684899 38.047220 39.914766
CG 52.401546 59.821504 45.346900
CG 57.941881 62.051941 32.369150
CG 61.166171 69.187781 34.524288
CG 51.816646 71.136318 42.128747
CG 66.373691 66.041013 49.132467
CG 55.480083 49.215967 43.917101
CG 67.358784 74.435345 43.058035
CG 67.388599 73.826151 33.914359
CG 73.521916 69.892889 43.239683
CG 83.198204 55.119225 16.723119
CG 100.662572 70.202544 56.581257
CG 92.063940 64.950778 86.116851
CG 89.986186 101.233831 117.058812
CG 92.636117 4.643180 117.627797
50
frame
CG 47.937864 3.378100 116.497767
CG 39.145393 113.223178 121.371304
CG 48.770221 104.609035 117.230684
CG 51.037692 124.964098 109.485794
CG 46.157447 112.625697 106.583668
CG 52.463710 115.499151 101.135205
CG 39.534596 109.984380 120.643200
CG 53.594523 122.149731 88.075409
CG 69.300460 112.114911 89.969926
CG 48.899348 100.026030 92.001017
CG 67.762162 100.362193 113.729901
CG 62.436625 106.738777 80.416429
CG 72.384726 113.591707 87.339951
CG 71.081945 0.728651 96.839809
CG 74.338793 118.953606 114.432212
CG 62.355286 19.568467 19.395506
CG 84.952381 39.572178 38.588036
CG 68.033981 69.497264 60.218668
CG 68.059310 75.310955 46.401159
CG 85.973896 84.373865 39.614998
CG 75.183192 66.410983 24.883507
CG 79.240310 45.804901 22.024569
CG 72.656074 43.969465 10.621426
CG 71.523180 48.456441 2.691322
CG 60.861973 69.957914 6.325032
CG 50.137227 44.923982 12.725816
CG 51.088785 78.319978 35.797350
CG 54.734882 62.216471 6.239313
CG 56.223811 72.344652 9.707820
CG 45.709645 61.937151 23.125619
CG 55.161010 64.872861 5.889180
CG 45.368297 59.476942 17.197183
CG 49.525489 50.298018 1.786111
CG 56.286073 47.809407 22.489377
CG 47.057590 62.750617 29.769779
CG 62.072353 72.115232 28.617157
CG 50.808372 60.923870 42.325654
CG 54.398869 68.573427 55.715441
CG 48.192590 74.555538 61.796574
CG 62.635722 55.849187 33.810035
CG 59.731473 64.574129 40.286894
CG 67.642213 78.009657 41.196916
CG 61.130695 42.162759 44.833864
CG 76.319909 60.386482 55.576682
CG 85.407862 66.347861 33.926601
CG 85.392937 70.863768 71.324793
CG 81.610253 65.547806 45.440006
CG 92.773752 72.446728 53.589226
CG 87.276106 43.535595 48.692979
CG 83.351333 23.837236 74.842959
50
frame
CG 49.819984 108.423251 13.517244
CG 54.131566 117.099781 122.403336
CG 46.398386 2.539225 8.627682
CG 41.504723 105.176876 117.103775
CG 49.921937 112.768996 117.700939
CG 53.915040 122.233930 100.165135
CG 60.366825 116.235545 83.935156
CG 53.406707 112.787297 108.312488
CG 46.465011 111.657196 117.696909
CG 56.711157 0.331751 99.844126
CG 68.861800 122.806880 85.713129
CG 72.519455 120.254776 93.391067
CG 68.521166 113.760887 120.339226
CG 75.135547 124.997531 4.585232
CG 79.236365 31.098973 29.058199
CG 74.856693 59.577995 50.315069
CG 69.616222 71.634624 41.643595
CG 79.329057 77.678637 35.114057
CG 83.016500 80.011489 36.093294
CG 69.845233 60.287295 24.827631
CG 72.157520 62.189466 28.051885
CG 64.476280 67.532154 14.396856
CG 57.999142 69.956419 12.744010
CG 56.253947 53.205963 18.644796
CG 62.679594 56.018759 13.162199
CG 63.260530 58.001846 7.504634
CG 62.024920 54.349922 123.594905
CG 51.555080 56.158165 16.998371
CG 46.068415 62.844936 12.583152
CG 58.682514 55.894300 124.095483
CG 49.703264 52.269832 0.454007
CG 53.625735 38.494278 123.657811
CG 56.524110 65.417337 15.584141
CG 47.426868 71.203819 12.632735
CG 46.266975 68.398712 25.508363
CG 49.871646 73.818057 39.657070
CG 55.194810 79.357515 38.854529
CG 56.847902 66.108014 35.489674
CG 60.368810 51.133969 35.950349
CG 60.886513 76.830941 65.622861
CG 53.280813 57.147531 51.185889
CG 74.578251 53.080456 47.141856
CG 84.941150 75.387554 42.511558
CG 80.997597 61.696652 58.246681
CG 72.158274 47.265223 73.015625
CG 80.849510 66.646941 64.276911
CG 75.451147 44.011831 51.187287
CG 71.101077 19.866015 41.899326
CG 78.880982 121.532298 14.069716
CG 86.029586 114.369194 104.109858
50
frame
CG 52.982572 113.530222 8.591066
CG 50.510615 107.432421 18.849339
CG 51.898511 107.412031 123.298814
CG 59.875584 122.748251 124.279230
CG 57.045864 2.156117 107.403754
CG 46.110599 101.872627 124.256606
CG 54.758467 118.215057 121.115256
CG 57.541375 120.588230 107.476814
CG 62.571552 7.700310 81.140024
CG 76.449412 2.596027 112.276810
CG 48.857239 5.938804 124.984897
CG 66.423367 18.346881 34.392971
CG 76.257244 46.445753 25.165247
CG 73.928017 57.796364 50.148445
CG 65.040192 67.944413 43.823932
CG 89.811959 54.570372 13.211636
CG 78.222408 64.062992 24.319385
CG 76.951987 49.705212 14.046025
CG 68.806092 50.168126 15.829292
CG 62.892701 66.636447 18.428760
CG 60.694570 77.786100 17.583708
CG 51.291887 73.860776 26.456366
CG 61.103505 68.172717 30.318177
CG 58.428954 82.248172 16.792521
CG 56.269951 51.720906 10.484112
CG 59.648554 66.525115 16.128927
CG 56.424258 40.173319 122.893232
CG 64.957152 53.057849 119.542985
CG 62.699570 29.111565 115.491416
CG 52.225590 41.598011 122.063728
CG 53.181333 54.286792 16.488563
CG 58.512135 80.558652 5.831250
CG 45.332393 62.802230 16.682834
CG 50.274249 67.707211 21.766344
CG 63.395362 78.727067 21.532834
CG 43.959914 63.965899 17.867848
CG 54.422200 60.015989 23.115924
CG 56.606940 74.152041 41.447187
CG 63.571400 74.865962 38.972451
CG 64.832640 52.077233 35.076992
CG 92.169690 67.432535 49.761832
CG 68.004636 62.444469 74.673764
CG 67.128310 57.340830 83.608495
CG 73.576157 56.480815 54.947686
CG 78.484568 63.424410 54.754611
CG 62.969934 114.860088 22.933102
CG 72.622386 110.869297 37.178027
CG 75.078671 103.609238 114.021745
CG 72.967682 121.546798 111.898465
CG 65.951989 124.262294 114.866395
50
frame
CG 51.656096 108.401919 9.741789
CG 55.791817 117.210929 122.767066
CG 55.501645 120.182810 3.234985
CG 48.541840 106.911241 1.409334
CG 52.027828 107.989481 3.787991
CG 61.246713 3.661505 110.551853
CG 58.439034 123.287171 99.935561
CG 60.142099 120.699110 113.213699
CG 56.958088 121.728850 8.546844
CG 54.647987 10.728808 1.358186
CG 76.618304 25.926102 1.742645
CG 70.075851 33.452066 7.525949
CG 61.054805 32.806529 27.161527
CG 73.418702 39.153915 18.173864
CG 82.996505 47.984933 21.386985
CG 68.274358 58.874893 37.464137
CG 71.960416 54.293382 24.061345
CG 72.580479 64.156800 21.326582
CG 69.906032 70.388180 20.035745
CG 65.476377 61.914122 19.648580
CG 62.231067 59.434986 23.465864
CG 64.475926 70.475979 17.503385
CG 55.963087 70.582818 12.894098
CG 56.749924 58.860058 20.264220
CG 59.618792 66.488364 15.607499
CG 59.409332 54.081346 2.263392
CG 61.499930 53.990343 5.102694
CG 54.820974 44.773275 5.327743
CG 54.555668 57.665240 7.362392
CG 61.519055 60.156873 4.551108
CG 55.497910 53.169814 123.757865
CG 49.442963 47.788795 13.532481
CG 59.184726 69.417997 15.024443
CG 53.460460 70.570867 13.709091
CG 45.030085 60.314698 20.062249
CG 59.988397 72.120508 30.626375
CG 58.464650 76.037946 32.375145
CG 59.532299 59.591679 25.294140
CG 67.867850 59.630358 38.547450
CG 69.261295 73.598726 57.930784
CG 57.020805 61.125537 59.538665
CG 75.320503 58.266476 46.039515
CG 80.345254 68.038818 44.117145
CG 68.704255 85.828641 55.350905
CG 66.380625 91.600329 46.657000
CG 78.111866 73.615488 35.078247
CG 72.661601 93.469012 8.928137
CG 66.664362 118.765349 17.802080
CG 68.563871 113.774875 9.632205
CG 74.059828 113.563095 116.798845
50
frame
CG 57.997035 122.889051 114.818765
CG 50.634252 110.004365 122.205956
CG 50.962280 108.082528 6.614761
CG 58.246178 123.379300 115.066609
CG 58.176189 120.980725 117.128927
CG 59.260425 119.483071 119.590141
CG 57.419240 117.720606 16.449491
CG 58.493694 15.759849 8.862904
CG 69.111544 20.195919 16.713065
CG 61.024599 26.539444 14.568068
CG 63.111225 24.449053 28.438153
CG 63.952558 29.468722 118.043242
CG 81.730979 28.445350 116.013225
CG 65.507060 31.202729 121.367858
CG 62.825003 23.330203 8.804056
CG 61.957058 43.398028 18.546936
CG 69.848597 56.437953 23.289707
CG 59.079363 68.564989 39.409818
CG 65.255462 63.628406 31.338640
CG 72.116348 67.681329 22.660773
CG 68.359798 63.312406 13.818586
CG 66.992022 46.838373 12.600611
CG 64.701436 52.870187 10.301956
CG 64.417339 49.025938 1.335779
CG 59.834084 62.427976 5.987542
CG 54.540148 48.027229 13.378293
CG 55.184512 76.034673 21.758419
CG 56.418758 69.478992 15.531235
CG 55.685317 73.415633 14.717153
CG 50.788883 55.700945 18.760563
CG 59.617413 68.246000 11.762923
CG 60.014491 56.009626 8.281580
CG 53.461113 47.657284 4.804459
CG 58.190237 51.339810 21.731154
CG 60.200526 67.949867 25.371685
CG 63.459764 64.265945 22.857917
CG 61.747699 58.586325 34.120239
CG 70.562913 71.978580 49.412165
CG 54.928880 65.152760 51.467868
CG 64.492077 61.508014 35.868253
CG 62.682374 67.064918 31.129928
CG 65.168284 94.788907 35.880647
CG 57.367691 95.702467 23.455406
CG 78.081876 80.723024 18.454717
CG 75.964489 92.652218 4.663690
CG 69.331097 95.371374 39.153537
CG 65.167406 92.715060 29.203486
CG 76.175875 79.102324 33.801306
CG 73.981984 88.228744 19.441734
CG 69.494758 103.733814 39.235897
50
frame
CG 46.451730 103.711714 113.560498
CG 58.962319 123.937764 110.561766
CG 63.040546 5.122140 97.536030
CG 60.721792 121.000254 1.283853
CG 60.739370 4.470645 12.863227
CG 55.635774 5.426560 25.794572
CG 66.795604 26.322841 22.831729
CG 64.794171 17.276373 31.422907
CG 57.646317 26.774743 20.215856
CG 75.201838 27.870427 13.413983
CG 65.033191 25.564255 114.160772
CG 66.251641 19.199086 18.693679
CG 53.439459 22.193368 4.341913
CG 61.348606 28.035568 0.349296
CG 60.078786 47.049140 120.709915
CG 63.892670 34.052677 119.312820
CG 50.241576 37.902967 19.604140
CG 67.075850 38.109880 10.821645
CG 66.127050 51.551148 20.102463
CG 59.507068 51.515449 28.003860
CG 69.582468 51.949865 19.237197
CG 68.998417 55.555824 7.937722
CG 73.424401 44.895522 5.866969
CG 64.279971 52.787617 10.450223
CG 60.371413 46.098799 13.887863
CG 62.240475 83.048887 18.287175
CG 53.736784 61.937517 12.348359
CG 53.046023 74.612939 26.896638
CG 57.125723 68.882057 25.887937
CG 58.198692 78.205072 16.331155
CG 51.921813 57.834844 26.125574
CG 58.886758 67.583018 22.619352
CG 63.842122 63.617588 28.646856
CG 67.025033 54.669373 15.045142
CG 73.950365 44.073324 20.909689
CG 62.491283 49.411130 40.830953
CG 65.038945 61.096277 41.381087
CG 57.436712 60.343744 33.252753
CG 67.588577 73.733915 23.303927
CG 57.180135 88.491657 26.090532
CG 65.302203 105.122730 16.843842
CG 57.863752 81.023089 3.054692
CG 67.933447 88.334906 3.792206
CG 56.846457 107.984971 6.580244
CG 61.698165 89.240893 25.581653
CG 71.286894 92.477104 123.178050
CG 81.022938 83.702499 33.162131
CG 68.640220 84.100799 43.785322
CG 68.695579 80.426832 69.313507
CG 75.081213 53.221246 57.006153
50
frame
CG 65.422983 8.143013 98.401335
CG 55.946565 115.823973 110.649790
CG 55.890633 122.671206 8.473796
CG 58.596559 12.958730 10.870893
CG 66.498398 25.105560 12.305221
CG 71.874533 31.735519 26.755652
CG 59.518742 26.136984 21.389929
CG 68.370687 26.554680 18.407353
CG 71.037650 23.321150 7.175002
CG 57.187766 12.928142 18.969137
CG 59.290176 22.599341 16.493048
CG 61.804514 30.459707 3.190411
CG 52.784107 39.221345 7.449787
CG 56.486114 31.155649 13.702257
CG 50.678886 26.070303 12.389222
CG 56.065011 32.904301 4.298890
CG 66.786004 33.029921 106.038744
CG 58.083575 24.131694 115.717192
CG 56.106490 21.686623 1.548023
CG 67.874618 26.369852 120.046460
CG 63.406893 35.133056 12.334492
CG 63.133237 50.176277 25.531037
CG 60.074543 59.479720 23.963133
CG 67.837992 72.460453 24.483684
CG 68.183799 67.891414 17.209478
CG 60.530931 54.850367 17.858104
CG 65.370584 59.460345 24.040905
CG 63.025346 70.855062 14.945377
CG 51.818207 61.600956 22.106181
CG 59.303397 70.872780 36.444881
CG 65.099969 76.426687 33.007348
CG 63.581366 67.376600 33.632834
CG 71.028550 60.486962 35.113551
CG 66.922582 63.432535 46.501505
CG 60.387060 59.232955 45.116896
CG 69.599748 55.143930 22.187336
CG 70.096030 58.296257 11.068684
CG 60.022550 71.620836 11.833936
CG 64.252116 92.564525 8.724540
CG 62.746535 88.367459 123.575179
CG 60.599326 83.103124 122.213743
CG 60.639822 106.501197 2.035294
CG 61.031803 99.365660 11.802273
CG 59.068242 82.706411 0.990773
CG 67.628499 90.620914 14.072152
CG 61.027824 85.356911 36.871755
CG 59.907924 79.348349 43.573949
CG 73.387772 68.416410 38.283302
CG 79.168548 46.365020 56.165891
CG 68.537129 66.030171 73.259471
50
frame
CG 64.403734 9.475050 8.485580
CG 67.666159 27.050889 4.061163
CG 67.222853 26.574676 10.296973
CG 67.798962 27.697151 9.397305
CG 58.112827 20.297691 18.440284
CG 64.464200 28.710993 120.265568
CG 75.345718 22.398953 3.709632
CG 61.618378 27.091421 5.571523
CG 58.854276 19.920813 23.678740
CG 57.950795 35.515310 4.759003
CG 57.941933 32.234926 25.644623
CG 44.387072 29.518196 16.505366
CG 63.540692 22.651014 22.036406
CG 51.805779 35.058781 5.215118
CG 62.204777 24.925781 122.149635
CG 52.489699 20.332384 3.334717
CG 53.659048 10.130526 1.208742
CG 57.159517 23.425184 115.655632
CG 66.276518 18.553722 97.027357
CG 56.558812 23.895631 119.774283
CG 52.102010 33.387284 2.427582
CG 61.756066 38.364830 8.802789
CG 61.738882 59.235058 25.861470
CG 58.203573 48.299800 27.769376
CG 62.775654 71.495280 34.678615
CG 70.869748 60.383584 24.617232
CG 65.520503 71.585467 23.638815
CG 65.349333 45.985728 31.179201
CG 77.612965 72.442985 32.043655
CG 67.259304 56.136239 28.812938
CG 68.937169 63.586979 35.713264
CG 71.017839 66.027715 55.006141
CG 59.234670 72.732226 49.715386
CG 89.990948 24.908526 113.342634
CG 69.222295 78.531984 22.082989
CG 63.233469 88.200951 18.995099
CG 57.579034 90.385697 11.287380
CG 78.143742 86.943249 114.701488
CG 59.874267 65.051715 111.076574
CG 65.392377 85.576055 115.981472
CG 59.749121 90.934541 0.980488
CG 65.401955 82.680253 3.874634
CG 57.569528 84.615432 3.450619
CG 69.546736 86.852379 39.078777
CG 55.779869 81.907835 27.933405
CG 38.423135 102.905519 93.521071
CG 65.879574 56.602584 34.562684
CG 61.093905 59.802099 67.969522
CG 58.085801 74.998201 42.202522
CG 76.917114 60.531754 34.694357
50
frame
CG 70.016779 48.555970 39.980618
CG 74.196405 41.651177 36.138624
CG 70.303851 38.332109 10.038644
CG 69.878803 34.877891 124.267016
CG 77.419889 31.166816 113.722905
CG 59.392829 14.886511 3.351075
CG 51.687432 24.328416 7.013070
CG 59.043626 27.597044 123.826133
CG 56.763235 40.682238 3.701279
CG 56.032126 34.842336 21.574616
CG 53.823721 27.112560 9.061213
CG 62.752309 32.093473 19.666159
CG 51.011862 25.342351 5.613626
CG 55.692477 9.684469 9.338125
CG 55.041963 16.085178 10.778319
CG 61.412831 16.520931 114.307117
CG 56.091898 21.069480 119.458048
CG 55.185746 13.186116 1.096698
CG 45.794566 28.985885 14.570658
CG 51.840296 36.261699 124.305500
CG 65.736574 38.222376 114.698222
CG 50.589742 33.547767 124.121511
CG 56.755221 28.548372 5.364387
CG 63.620944 43.673951 13.610650
CG 60.882345 39.750647 25.550892
CG 61.330522 60.708466 43.478143
CG 74.021142 59.639634 42.084524
CG 79.092421 70.567501 39.347754
CG 75.661381 52.420918 39.086413
CG 81.405426 57.953092 47.595507
CG 71.872585 57.632818 50.423026
CG 65.363017 62.225252 26.140369
CG 68.287813 64.094376 39.870585
CG 52.220606 27.449227 108.564316
CG 82.150746 102.435772 3.036359
CG 80.463261 95.570052 121.550611
CG 73.377128 89.473252 118.690483
CG 53.866918 91.553248 3.866479
CG 67.351343 99.707494 2.710078
CG 68.261757 74.947122 124.652901
CG 67.494048 68.679536 122.370898
CG 63.536976 66.432334 20.457220
CG 63.676474 73.412592 28.276260
CG 44.679947 87.835061 11.188090
CG 53.892439 96.350814 29.653155
CG 65.270453 84.296709 110.932920
CG 62.005123 61.258230 57.966531
CG 63.670506 59.517940 24.310121
CG 65.749440 64.401023 29.494837
CG 48.053396 70.982807 32.317141
50
frame
CG 80.883157 69.109681 34.850598
CG 70.892457 55.984434 26.937573
CG 78.233375 50.224867 27.028330
CG 69.000693 33.522163 24.811938
CG 57.821507 36.829159 7.934022
CG 67.871974 44.030080 1.735693
CG 60.080212 41.654392 115.655662
CG 51.633621 30.443230 17.648821
CG 51.829781 26.101507 123.509638
CG 58.586806 22.885828 1.136585
CG 56.491920 33.964575 121.919744
CG 59.153257 14.242870 124.883165
CG 53.914220 18.487406 4.144231
CG 65.186450 19.933997 3.505355
CG 50.835173 15.684173 122.843702
CG 52.620601 11.773405 17.454591
CG 52.807261 28.414006 15.287323
CG 51.808429 37.442197 5.949490
CG 56.691961 34.308805 5.826986
CG 54.183223 25.231947 8.162052
CG 42.589199 24.298910 19.433901
CG 61.202993 37.672667 4.618359
CG 60.815423 28.704046 119.591679
CG 55.680004 35.670908 12.743925
CG 68.057200 29.855121 14.701141
CG 72.838184 38.436902 22.881559
CG 70.110632 32.523820 42.936718
CG 74.256061 58.334435 55.951100
CG 71.371631 55.349961 58.584190
CG 71.888251 69.067744 41.244361
CG 75.655135 57.901057 31.438365
CG 75.623917 51.305958 38.658015
CG 70.981509 42.667104 20.981940
CG 15.809842 8.586271 87.481478
CG 90.228543 124.716797 110.579253
CG 79.336543 113.832938 118.643233
CG 84.458525 109.402819 123.123974
CG 80.103237 88.420980 4.045175
CG 74.054695 84.427483 10.528635
CG 57.394415 81.761177 28.989651
CG 65.488047 79.130145 34.609659
CG 53.264229 84.895855 7.358983
CG 55.868542 80.586627 14.198283
CG 57.773126 63.587649 12.569537
CG 48.502363 57.252552 5.665635
CG 77.703718 104.498410 10.948194
CG 73.363467 56.014250 8.155297
CG 54.562165 77.018704 33.426469
CG 48.688709 57.470065 42.790349
CG 55.525955 62.890962 25.115269
50
frame
CG 75.157541 53.109054 12.027306
CG 80.191925 64.235001 22.242351
CG 64.365162 61.945115 32.107713
CG 68.037068 71.547512 25.770378
CG 65.654389 58.488738 38.671605
CG 55.959075 50.069234 27.398491
CG 62.562206 37.146545 17.426508
CG 65.879868 42.472280 111.553267
CG 62.633741 28.793134 123.902012
CG 51.980516 19.679261 111.284208
CG 57.597965 6.238498 123.136392
CG 52.661666 20.953020 109.211267
CG 65.471857 18.366713 117.501198
CG 45.493347 21.704376 2.897495
CG 60.188645 29.204229 15.440972
CG 51.637960 44.587433 13.554401
CG 51.461224 25.648406 11.515284
CG 52.893313 24.802467 25.571242
CG 51.689725 22.928232 14.742014
CG 56.056790 35.989487 16.733459
CG 60.610146 30.899269 7.277092
CG 53.887515 18.890176 22.191907
CG 55.715373 36.048925 35.428400
CG 72.311190 22.542524 10.805819
CG 67.263938 33.728924 17.460741
CG 67.834532 21.916163 25.035666
CG 67.520074 41.695987 26.402146
CG 62.573258 20.802739 24.801690
CG 71.240393 49.302520 29.523213
CG 67.351023 38.017572 43.390987
CG 68.725303 46.729282 32.476225
CG 73.821193 49.449361 25.647374
CG 78.256516 46.303241 29.341234
CG 122.323290 85.011101 65.691019
CG 71.207905 7.460086 2.629647
CG 92.415189 3.905015 121.306160
CG 84.856256 113.938233 6.357720
CG 88.603407 110.575101 16.493636
CG 74.196819 88.049333 29.307117
CG 75.743887 99.688371 12.815499
CG 53.618806 97.517817 16.444470
CG 59.317218 77.198858 29.099629
CG 49.767732 62.070162 1.034175
CG 57.886436 59.861529 113.261053
CG 48.240804 46.496498 98.555246
CG 85.189523 6.715619 25.738582
CG 48.468946 68.784962 106.690573
CG 70.521208 49.148563 111.632902
CG 64.145566 66.815382 121.720440
CG 57.534907 59.078987 41.971901
50
frame
CG 65.144539 60.422279 20.314325
CG 64.717129 61.711312 15.202696
CG 68.909907 68.128145 15.938061
CG 64.765917 70.485286 31.533124
CG 68.696843 68.592324 27.285856
CG 69.572173 61.184008 20.590204
CG 64.564763 53.424187 32.157587
CG 59.875623 32.019714 14.316214
CG 63.875282 26.637037 1.310814
CG 67.096460 33.050810 114.319761
CG 61.092423 24.554786 107.325499
CG 52.909198 21.375429 0.988314
CG 46.994717 24.381127 3.372323
CG 55.718964 38.560853 123.802221
CG 52.969907 35.256690 4.181806
CG 53.781320 23.824554 7.250659
CG 56.738022 34.054805 20.498229
CG 55.544946 32.969299 13.847852
CG 55.953439 29.701142 25.140483
CG 54.122968 16.621717 29.898662
CG 64.340932 30.064653 34.926991
CG 66.776280 31.739682 25.498411
CG 71.186282 20.640441 21.445773
CG 59.766183 23.313025 43.769368
CG 59.072103 28.832414 40.414445
CG 60.258037 27.537482 17.131476
CG 65.447434 27.107270 5.339356
CG 66.513489 26.482002 9.165751
CG 60.245037 11.778117 3.559480
CG 68.426654 15.062319 3.597891
CG 75.509343 29.987766 30.893836
CG 80.169777 32.643041 36.248377
CG 93.016570 51.633934 47.445410
CG 85.435281 59.474015 47.636145
CG 76.607107 102.811231 9.224071
CG 67.520190 116.363120 23.944390
CG 71.264473 118.765505 25.664471
CG 73.594346 3.946781 11.908478
CG 75.663898 12.134048 4.085073
CG 77.206203 98.949879 16.587827
CG 72.705400 72.031011 120.582918
CG 69.248526 72.619260 108.256365
CG 60.539211 67.386493 113.710324
CG 49.468522 63.026431 123.396326
CG 71.075049 75.359271 117.628153
CG 56.942070 56.126904 20.116498
CG 75.032020 42.657287 103.162775
CG 51.636502 47.709926 116.822870
CG 64.346430 56.149827 112.819422
CG 76.664447 57.262392 73.962467
50
frame
CG 57.834742 77.218756 20.715721
CG 52.706107 67.926763 27.297244
CG 65.278606 64.654655 19.666279
CG 69.052564 50.750858 6.847821
CG 65.712456 58.212953 6.549035
CG 69.343413 54.453243 21.610391
CG 69.270627 54.576997 0.543404
CG 71.219524 54.770784 28.861825
CG 62.439061 52.057320 15.660079
CG 59.727207 32.303213 28.661671
CG 55.057130 50.597582 14.921533
CG 67.352761 47.237837 0.483747
CG 54.005086 44.708021 120.851291
CG 57.907396 21.987610 7.935993
CG 46.676296 26.483108 2.710942
CG 58.856591 31.503495 7.639785
CG 56.126467 32.323643 9.455269
CG 57.752237 23.175004 19.628353
CG 66.550587 33.514753 32.776417
CG 70.948298 35.548615 26.853145
CG 60.802440 15.952512 37.403766
CG 64.395639 21.299367 48.950817
CG 61.391778 24.882780 43.088385
CG 59.183855 35.288129 25.739039
CG 66.819087 13.584447 9.094937
CG 60.453487 26.622366 26.264744
CG 53.147534 0.898662 20.952419
CG 64.006309 18.839785 123.948469
CG 74.022891 12.384076 7.996976
CG 78.581664 25.793600 10.857025
CG 84.227595 13.686723 10.010330
CG 92.487001 32.019031 28.732465
CG 90.307680 39.107463 20.134501
CG 28.147801 117.316801 49.171222
CG 65.716183 111.496117 39.220306
CG 60.970361 97.694983 23.159879
CG 65.431826 122.264274 8.015748
CG 57.109113 103.401094 18.776809
CG 69.431631 91.873437 122.467161
CG 63.553195 104.302537 99.903735
CG 82.437565 109.006344 107.883669
CG 70.409841 87.560013 109.387818
CG 89.903247 85.593477 115.203729
CG 94.691411 74.795055 105.517317
CG 74.736724 55.648369 122.374628
CG 123.750002 109.064442 21.463072
CG 73.523347 63.303658 0.036353
CG 89.052129 66.528523 75.176551
CG 81.004497 33.627188 55.044976
CG 60.209346 43.710575 67.573036
50
frame
CG 58.477804 64.791753 23.149266
CG 65.798600 66.133617 12.981589
CG 60.111594 63.420505 14.440326
CG 61.128321 65.841051 22.529106
CG 68.013885 56.462708 16.310068
CG 67.999995 55.098574 9.195850
CG 65.739991 53.269989 23.027074
CG 62.407465 46.317120 12.718208
CG 64.625018 47.818421 16.381178
CG 65.751189 57.181690 7.910022
CG 63.168027 41.559280 8.973226
CG 53.011721 33.038849 16.358407
CG 57.542720 33.349902 12.197046
CG 56.910280 43.437541 1.390524
CG 61.045649 35.877754 6.397777
CG 54.067457 25.838762 11.600252
CG 58.818952 27.590947 18.509397
CG 63.651526 35.224051 19.352047
CG 59.105346 23.762245 20.918314
CG 58.748040 19.853001 35.847390
CG 66.648440 33.360480 35.730078
CG 63.222453 30.288574 25.346279
CG 63.858127 20.988041 24.163453
CG 63.757265 15.339171 33.952111
CG 56.465138 22.982565 35.107094
CG 62.101638 15.974378 11.358064
CG 71.699904 24.822328 8.037838
CG 69.144045 16.789125 21.879458
CG 69.179949 16.925882 14.217598
CG 77.490650 17.850687 13.848285
CG 77.749897 28.080240 20.323741
CG 59.305801 7.661491 22.103132
CG 62.000186 117.913327 31.603545
CG 92.686658 11.123172 17.313886
CG 65.545824 9.222673 17.587788
CG 54.267705 121.000579 28.252445
CG 61.107371 96.105860 21.826622
CG 68.313842 104.432077 121.383832
CG 67.006072 114.109182 121.892118
CG 72.192751 96.175897 4.571576
CG 71.576952 85.644013 116.181740
CG 84.859137 92.269731 108.458761
CG 78.942342 84.171602 112.480393
CG 87.771067 90.504447 3.841955
CG 96.685703 88.938675 117.254483
CG 71.766847 51.187868 87.169420
CG 92.487500 61.429063 87.027979
CG 82.432706 61.990834 107.485747
CG 71.606072 63.969902 98.749634
CG 85.726715 49.431412 68.883706
50
frame
CG 69.992754 53.086327 6.343783
CG 63.959398 59.261652 18.152958
CG 63.635696 60.544978 20.461429
CG 64.148937 65.238801 15.505169
CG 58.566131 61.657512 28.210553
CG 55.732704 57.027727 20.548045
CG 61.799565 49.939670 21.201818
CG 63.109360 56.405858 123.335342
CG 64.834436 45.883933 9.356945
CG 58.026999 41.296126 3.847496
CG 63.382497 35.886269 13.427428
CG 60.489029 49.267524 8.872002
CG 65.041121 36.880795 18.407620
CG 55.703609 34.471730 23.691166
CG 64.691265 35.918720 24.940261
CG 65.008778 45.251177 16.183121
CG 62.600163 30.390498 18.214614
CG 54.871127 20.476602 25.690395
CG 58.686448 28.131846 23.963540
CG 58.287609 31.999195 14.623142
CG 58.468954 24.974283 8.485381
CG 60.190184 16.942576 20.125820
CG 62.101086 28.103778 25.310046
CG 64.599654 16.344811 12.888677
CG 71.117622 24.889390 19.089374
CG 72.927237 14.537630 31.954107
CG 71.468368 31.242624 31.367456
CG 75.468418 21.322430 22.988953
CG 73.336645 32.783767 25.381828
CG 51.176960 4.254634 32.892468
CG 46.721739 116.621489 31.251951
CG 74.484343 121.844431 8.886200
CG 61.205025 1.943260 10.801521
CG 72.394598 3.653203 3.952245
CG 66.972816 109.501176 11.194130
CG 96.006836 11.121501 116.376106
CG 70.744553 5.732884 2.717108
CG 69.129434 113.698686 16.598124
CG 67.844010 88.738031 15.892771
CG 82.822238 93.605571 4.017820
CG 71.857999 92.941811 6.509573
CG 81.670242 93.174693 19.490772
CG 80.090073 90.787807 119.806330
CG 65.686172 70.408792 87.337103
CG 83.045085 79.054160 76.463772
CG 61.304719 57.990959 90.521971
CG 83.759574 78.847001 91.587215
CG 73.142140 44.952290 81.508111
CG 98.908805 72.865211 102.620855
CG 92.509186 84.655218 15.225213
50
frame
CG 68.157155 56.415367 16.497064
CG 68.697781 49.742287 9.982511
CG 68.231534 54.113526 16.438751
CG 58.668820 46.671454 22.856888
CG 57.661955 56.429618 12.748320
CG 60.937912 61.278988 15.929329
CG 55.100184 59.725793 0.434959
CG 55.368867 46.023821 27.080707
CG 55.473982 45.138075 6.287209
CG 63.331439 41.033558 12.824480
CG 59.960394 50.240503 10.284464
CG 68.554790 34.413717 17.453255
CG 62.525120 46.433248 20.941052
CG 75.829591 43.972564 26.784967
CG 60.356033 36.849865 27.264180
CG 61.015265 24.529620 38.870726
CG 60.319898 38.636817 29.289726
CG 63.294069 41.996182 11.056046
CG 59.398244 31.100443 7.858090
CG 58.415905 19.929028 7.633623
CG 54.450149 18.349464 15.307134
CG 60.272985 26.119034 3.266542
CG 65.666496 17.569142 1.363495
CG 70.241922 30.975961 21.436097
CG 76.334422 21.832323 19.643086
CG 76.298011 37.233582 24.968249
CG 70.742074 13.658418 35.797430
CG 55.257648 16.143588 42.612545
CG 48.104523 115.958554 45.365694
CG 70.930859 9.132703 20.333590
CG 68.614346 5.950773 8.234713
CG 51.548636 124.926767 23.272449
CG 70.559342 117.673450 0.607492
CG 57.088505 109.890173 121.857649
CG 84.718359 10.428903 111.231302
CG 67.113323 106.166941 2.562316
CG 89.394432 110.285377 0.092829
CG 97.509968 116.566795 1.538440
CG 88.188595 117.497826 10.655873
CG 67.835793 106.814994 27.090326
CG 84.183880 96.291025 19.051436
CG 60.046028 74.248586 100.568274
CG 68.607956 77.278245 99.368916
CG 71.293212 76.047969 104.979280
CG 47.665275 60.116558 100.148095
CG 92.237044 92.869914 87.213129
CG 68.096548 66.365996 96.074637
CG 91.227600 105.694209 0.268758
CG 89.536192 83.090821 5.226337
CG 88.659275 71.698471 109.567367
50
frame
CG 65.445206 48.449046 19.364403
CG 64.357595 50.007792 22.281563
CG 59.679372 45.157133 9.688759
CG 66.898273 52.285883 4.174048
CG 65.695585 46.260942 0.781102
CG 56.102719 38.464034 11.940260
CG 55.672911 46.916531 18.766552
CG 57.562714 51.359095 9.934271
CG 55.787437 56.658310 19.313701
CG 59.583685 50.523412 29.205810
CG 63.449947 43.600064 21.310815
CG 66.771641 47.090825 27.103007
CG 67.116347 40.563510 23.068688
CG 61.077472 32.195414 26.455573
CG 67.919415 42.974275 28.965507
CG 67.447103 46.580926 16.564801
CG 61.238508 32.873797 16.259455
CG 61.487408 25.841136 23.790161
CG 60.033763 29.297812 16.219767
CG 62.502090 33.754540 6.824445
CG 70.185174 29.802649 122.834394
CG 67.698052 26.110207 10.533603
CG 68.964997 25.473087 15.220141
CG 71.671120 29.900400 9.885075
CG 61.412258 22.210017 23.610566
CG 53.058220 11.107950 29.512906
CG 53.274458 1.062149 28.552642
CG 69.311628 6.207166 24.196749
CG 72.213345 5.008708 12.986445
CG 54.309796 0.315326 30.508745
CG 67.380931 123.366450 21.854613
CG 68.356711 123.919291 121.834823
CG 71.312779 4.649953 124.286922
CG 72.405703 118.608900 10.761764
CG 70.665006 100.795160 1.777553
CG 75.041319 105.682804 1.420966
CG 89.045327 112.116322 0.759286
CG 71.411503 101.722400 8.066339
CG 93.049124 112.609671 0.496184
CG 88.321455 99.578268 97.521609
CG 68.218825 95.635227 93.764203
CG 70.904915 96.059762 120.417504
CG 54.918810 70.863820 120.417883
CG 72.808945 87.597838 108.004229
CG 83.183622 90.774580 121.846401
CG 71.031736 92.653940 16.470734
CG 79.256712 94.778907 14.984384
CG 88.826188 91.582849 114.444929
CG 64.917040 80.870671 100.776854
CG 84.737448 99.632087 113.458696
50
frame
CG 57.227155 40.267974 15.515485
CG 59.945718 46.480870 9.041104
CG 65.958941 45.626165 9.521387
CG 59.869692 38.699609 8.035451
CG 57.130422 35.898961 19.365730
CG 64.932853 45.732865 0.105745
CG 66.508189 39.144821 16.445977
CG 60.233428 46.424064 17.394567
CG 66.089055 42.519975 33.492981
CG 59.815969 55.371080 19.005481
CG 62.976359 48.957343 38.698671
CG 53.393116 47.821019 30.764729
CG 64.929813 39.593267 31.892998
CG 61.510889 52.069482 17.348539
CG 65.458932 35.166191 9.099587
CG 61.590962 32.776266 12.953063
CG 69.881223 35.148883 16.020429
CG 65.430096 37.468269 9.712742
CG 72.619871 32.462228 10.569477
CG 72.842593 31.553854 22.248759
CG 71.488788 37.866759 21.441440
CG 74.070130 34.742022 13.721853
CG 65.162272 35.184818 19.201351
CG 48.279361 2.874296 23.097851
CG 49.951692 7.467992 18.635056
CG 63.088692 121.001115 9.196450
CG 65.112324 17.208677 3.209550
CG 53.864917 118.807881 8.951697
CG 66.224730 10.411057 11.794414
CG 75.812040 121.725028 120.472307
CG 66.701362 0.622043 4.082651
CG 80.391694 120.334799 20.024235
CG 66.069824 104.778027 24.792093
CG 86.769800 118.347994 123.786929
CG 72.836083 109.220020 19.752110
CG 85.908562 116.809937 9.870532
CG 60.063348 97.222072 2.657408
CG 77.886275 97.119763 96.379796
CG 58.284240 79.824521 83.723739
CG 72.438410 93.330611 102.660155
CG 73.114488 91.825160 107.025085
CG 91.206684 103.867129 104.849786
CG 94.663104 124.154443 118.244920
CG 68.817390 104.176202 32.802447
CG 84.133419 111.188368 30.675768
CG 70.011402 83.223467 9.028033
CG 83.536896 107.718253 123.669757
CG 53.161092 80.943462 2.828443
CG 86.353267 117.131695 1.149863
CG 59.974777 98.240239 108.261207
50
frame
CG 63.371615 28.814350 83.978793
CG 61.951082 5.258103 66.250727
CG 56.483934 19.831304 107.795598
CG 59.304258 35.836218 12.067895
CG 66.967392 43.584241 11.618908
CG 64.342286 39.607179 30.329667
CG 64.904354 41.498350 18.748234
CG 72.060108 39.563622 26.063488
CG 65.893054 40.284668 18.424103
CG 62.868479 34.466932 34.460457
CG 58.589116 46.545456 26.851261
CG 64.219699 51.614733 23.785979
CG 48.908517 66.623097 52.005724
CG 55.454075 61.334939 82.893988
CG 55.826479 53.382042 54.249033
CG 66.470664 39.942699 17.046030
CG 69.417709 37.687694 4.096242
CG 79.155324 37.987510 11.831946
CG 77.235634 43.464136 22.472811
CG 76.285112 39.652187 15.969089
CG 67.619835 29.915423 31.018255
CG 51.882069 16.903622 35.862163
CG 51.934946 4.347105 22.007298
CG 67.451660 18.962858 13.086029
CG 70.027987 12.788815 123.881507
CG 52.379471 8.850886 1.480618
CG 60.083019 119.829199 1.694954
CG 73.009457 7.943919 109.452445
CG 59.977220 118.775363 115.720944
CG 72.967028 124.834869 4.475322
CG 78.125286 113.589057 9.156602
CG 75.713266 111.654237 5.184205
CG 87.563822 116.069794 10.884594
CG 71.676624 104.871190 32.942142
CG 76.749193 114.197134 6.039184
CG 65.214902 94.343427 104.996809
CG 66.064367 90.699584 95.101085
CG 66.720357 96.581673 108.482520
CG 61.407238 92.781546 115.498511
CG 68.245354 95.426102 105.459663
CG 91.325298 111.376983 116.119156
CG 69.275411 105.357843 11.312057
CG 90.089865 115.041267 21.353581
CG 103.521352 117.395545 120.974073
CG 73.932615 115.240560 119.627948
CG 76.720249 123.820738 14.292627
CG 63.277134 103.333997 15.482459
CG 70.516079 121.837716 6.175849
CG 56.283053 101.919884 6.582593
CG 64.259289 105.881243 17.934664
50
frame
CG 61.624939 107.556388 105.604217
CG 67.253528 6.461129 95.543347
CG 65.756422 19.729606 81.501480
CG 68.200103 10.110449 83.480713
CG 62.808843 21.292780 113.989062
CG 66.191832 30.845122 19.529007
CG 68.061085 40.561889 27.128455
CG 62.454660 32.239174 32.864122
CG 61.209484 41.352368 24.513658
CG 70.440743 43.883202 25.880265
CG 58.887033 50.990829 37.822801
CG 56.566442 53.889218 83.965253
CG 60.238028 52.897099 51.926055
CG 57.187261 61.325302 64.526577
CG 60.711514 66.055861 51.610784
CG 67.344074 70.038782 80.723325
CG 67.097972 60.356783 63.577203
CG 70.294571 45.235665 31.944389
CG 65.551354 31.837077 20.920962
CG 56.578026 22.676666 31.092287
CG 57.414711 10.899284 17.170001
CG 71.136783 19.509065 11.486378
CG 73.217057 16.444422 13.983031
CG 58.619209 14.572191 8.285201
CG 58.684918 1.169136 8.533361
CG 79.960760 20.046565 115.883815
CG 67.355415 2.186807 109.409253
CG 65.602595 1.140724 3.144253
CG 81.172511 110.883015 122.425744
CG 67.700679 113.466974 121.565236
CG 77.634180 113.287484 123.371503
CG 71.332768 111.999362 10.900069
CG 75.145450 114.263987 118.639024
CG 65.115534 98.592396 98.170327
CG 70.897283 86.671614 92.632563
CG 58.999953 91.821578 2.379106
CG 77.814722 109.918547 124.644690
CG 57.998224 94.262429 119.114322
CG 96.575866 122.909521 2.324135
CG 75.043123 114.280290 21.292507
CG 63.861385 108.302831 24.466679
CG 90.249175 115.431544 0.649807
CG 65.808551 97.711977 111.794677
CG 66.810856 121.231865 121.309804
CG 82.088769 115.223664 5.548808
CG 88.178423 14.334885 117.169104
CG 61.886093 2.795739 4.564681
CG 77.531839 5.905882 27.883946
CG 50.764758 105.858312 32.261108
CG 64.662835 122.093556 29.072731
50
frame
CG 70.924790 0.539162 39.605301
CG 64.984630 116.532666 61.258860
CG 71.786275 105.311617 108.128760
CG 69.962058 6.417496 108.541710
CG 69.156644 8.702175 98.647925
CG 65.660766 9.278051 80.213427
CG 59.341174 13.619588 120.615945
CG 62.426981 42.046832 12.625555
CG 64.966147 44.969967 54.296225
CG 50.470482 55.437659 71.164825
CG 66.893974 47.056342 69.646095
CG 63.202203 52.354751 39.034497
CG 70.091572 52.421455 63.776683
CG 71.044078 58.016536 52.178581
CG 72.379972 60.006015 79.040705
CG 58.419225 61.696297 63.434297
CG 57.944996 59.027149 73.303500
CG 42.275281 52.578864 95.436751
CG 48.783824 31.681208 64.696763
CG 64.621767 22.830661 24.383345
CG 71.842121 26.127788 9.503238
CG 64.043648 14.633218 3.394239
CG 64.077161 16.767546 123.866370
CG 81.505036 8.680027 119.975980
CG 76.661555 19.117312 121.029299
CG 65.045927 115.537822 10.390816
CG 82.383263 6.017628 10.976318
CG 78.933847 114.237132 121.912118
CG 73.680715 4.894525 124.660645
CG 76.913692 110.882627 1.102848
CG 65.372501 110.991732 110.737012
CG 66.804510 102.307131 82.851263
CG 50.853341 80.566982 87.371826
CG 69.704821 102.506276 98.832713
CG 62.447995 107.902450 124.607423
CG 80.347825 110.762134 104.887504
CG 76.430141 105.050263 7.764691
CG 93.365982 1.861891 35.858028
CG 60.347200 109.516883 31.616850
CG 84.038683 118.050171 12.483373
CG 78.256050 114.118001 119.413404
CG 59.331166 117.487505 6.789833
CG 69.296850 4.351866 9.488500
CG 66.726784 118.210692 3.194478
CG 60.295876 3.503615 120.250256
CG 52.620871 107.131748 15.570182
CG 88.016195 8.014041 21.379718
CG 60.846209 122.201410 13.357963
CG 88.524072 36.454159 26.626576
CG 59.671460 3.141975 38.296616
50
frame
CG 74.200180 117.031972 69.655641
CG 77.180677 119.456217 62.814023
CG 69.611179 0.166697 44.685152
CG 64.370066 108.392823 67.347615
CG 67.522970 107.435572 101.343851
CG 65.036259 11.363289 123.020130
CG 66.128467 22.069619 113.621177
CG 58.074609 21.444175 7.512836
CG 57.566637 27.696842 23.223464
CG 67.521926 38.955863 31.097607
CG 65.510919 52.754883 60.724284
CG 73.458076 53.817809 60.521756
CG 71.390251 58.136734 73.084631
CG 68.664120 49.876961 64.443522
CG 59.044977 45.604125 66.675093
CG 54.312532 36.099500 72.337366
CG 47.598566 31.532908 74.931023
CG 60.772301 35.012840 45.553160
CG 62.888938 54.311146 62.187220
CG 51.785961 48.514337 67.993705
CG 54.869013 33.511605 48.952488
CG 72.487482 21.969651 14.229966
CG 77.642287 16.406071 120.757640
CG 68.335511 5.813574 5.168209
CG 85.006062 1.927950 3.376401
CG 86.350477 0.826946 0.007043
CG 75.836409 124.163886 8.072387
CG 78.269667 121.270198 8.740608
CG 68.082505 112.677031 118.997938
CG 70.122975 113.248177 85.416485
CG 58.605049 96.047103 86.043266
CG 62.803329 97.215824 99.352823
CG 70.411663 117.685037 110.075671
CG 67.006155 105.511879 108.369727
CG 73.657263 109.661475 114.390732
CG 85.172296 1.095894 19.960898
CG 64.345030 119.929213 21.586692
CG 81.676237 118.346877 119.714453
CG 77.969559 110.204378 124.712350
CG 64.506833 121.037528 14.291598
CG 68.044538 8.384676 22.443650
CG 65.303531 0.082592 12.267053
CG 66.739409 8.139429 9.826431
CG 55.248518 120.175838 21.610625
CG 63.398413 2.192879 31.083247
CG 61.374469 2.895025 22.810724
CG 57.481881 9.059703 17.448223
CG 63.902959 8.235090 28.688033
CG 72.681309 5.883695 22.122923
CG 93.751896 43.277502 9.928289
50
frame
CG 76.135043 116.042565 72.207233
CG 71.301454 113.803774 73.360302
CG 70.375499 116.929093 73.465764
CG 73.798787 2.371785 74.482951
CG 63.367221 18.387773 67.332860
CG 60.702001 118.513115 110.504947
CG 63.411704 123.907207 9.780476
CG 71.228644 8.183062 13.632079
CG 70.443634 27.158319 116.497543
CG 76.854920 21.655964 5.989876
CG 67.069198 32.947793 11.732752
CG 66.391986 38.600422 65.278354
CG 56.723148 38.594539 51.721261
CG 52.886658 34.992692 84.781512
CG 51.411466 27.476855 61.694579
CG 66.939974 27.841726 54.605453
CG 69.253976 38.198272 43.408066
CG 62.523494 36.296180 55.460986
CG 54.934742 26.606464 46.895441
CG 69.516456 34.197427 36.654161
CG 69.339685 41.062485 46.781226
CG 58.260936 40.828220 69.336168
CG 70.844863 17.991326 60.511377
CG 82.007538 17.728370 20.722616
CG 70.866770 121.541932 10.756589
CG 79.265899 11.597091 2.854871
CG 74.846795 109.695785 105.138822
CG 68.862579 120.345743 90.910220
CG 69.816883 96.691031 88.832965
CG 58.360398 103.430322 115.134378
CG 78.825910 121.950768 117.872617
CG 71.013269 123.570145 117.656649
CG 80.556811 118.772561 115.966115
CG 77.208626 0.901522 17.941859
CG 78.273642 3.965304 8.699612
CG 55.885865 107.245826 119.659430
CG 86.894903 121.348292 102.103417
CG 46.860615 114.739414 3.048601
CG 73.560776 22.690777 7.695194
CG 66.356771 2.408467 124.013285
CG 60.497586 121.696228 13.132909
CG 67.520000 7.627796 30.068235
CG 55.348889 119.408406 42.812841
CG 67.326954 20.345197 32.835189
CG 59.961419 7.261145 30.984222
CG 70.027616 26.866306 32.521343
CG 52.583815 3.515120 33.532405
CG 91.421237 43.225334 15.737240
CG 64.326529 21.599627 3.670747
CG 71.528752 3.795469 12.802087
50
frame
CG 71.195365 115.411132 73.421057
CG 74.113591 122.388566 72.925106
CG 70.582719 2.587925 74.482066
CG 64.123528 120.462795 89.367376
CG 68.931341 114.860234 110.874974
CG 71.538217 11.628464 100.479541
CG 68.795673 17.978128 95.196631
CG 66.445966 13.044874 114.441205
CG 67.824517 11.818869 18.875956
CG 64.653251 26.750536 30.908834
CG 66.409992 29.437848 36.439339
CG 62.190920 28.369033 29.168087
CG 62.292681 29.935723 49.027376
CG 64.842722 32.749623 44.407269
CG 65.659759 38.086117 55.859783
CG 55.591994 36.595575 62.884091
CG 55.414216 26.996866 59.369061
CG 65.492345 30.366034 43.525690
CG 71.609992 40.822105 47.366759
CG 59.410367 35.850465 61.028185
CG 62.900485 24.279627 53.108133
CG 77.127189 20.480891 27.825158
CG 70.346849 24.790006 24.477674
CG 65.808099 17.370095 37.263139
CG 75.802836 11.976199 18.866777
CG 71.885644 120.158699 119.834891
CG 70.813303 121.305811 116.275498
CG 71.695684 111.919816 120.344211
CG 71.983039 122.628453 116.766785
CG 77.592287 120.635740 101.471456
CG 68.069557 108.205108 106.637526
CG 73.676001 114.372211 123.765093
CG 72.315968 124.431414 5.268806
CG 70.032079 117.056238 112.230036
CG 72.936090 115.193780 114.352176
CG 76.347637 4.096077 5.065620
CG 59.817347 3.729840 13.625760
CG 76.440167 3.001487 120.092097
CG 63.459575 112.559604 121.573415
CG 61.011410 2.462145 17.971418
CG 66.365023 10.108394 22.740935
CG 61.898637 4.901177 17.904707
CG 66.864739 12.700702 19.078767
CG 61.913537 5.459619 32.308569
CG 63.416133 12.985752 35.167956
CG 68.063604 16.540477 25.041023
CG 75.322572 27.434761 16.308768
CG 57.094439 3.503706 22.747004
CG 71.840225 10.724494 24.645302
CG 73.763026 30.397803 10.412743
50
frame
CG 68.801711 7.433590 77.426455
CG 63.870675 122.913684 91.068928
CG 68.824505 115.433312 110.199730
CG 73.449107 4.873899 102.887860
CG 74.430691 7.864993 98.063028
CG 70.658810 10.698103 97.834863
CG 72.542911 5.909600 120.213947
CG 65.900810 27.243750 120.962955
CG 62.407043 22.920015 11.804560
CG 55.075919 16.757789 16.412791
CG 60.498250 10.602788 44.930627
CG 65.071066 20.361892 20.474992
CG 73.620974 27.206839 29.149003
CG 66.822613 29.958463 14.774090
CG 64.540467 29.897306 39.522166
CG 65.390731 33.882917 35.936731
CG 66.667636 41.209003 55.986162
CG 55.582339 35.971245 69.488462
CG 60.465502 22.885983 63.378636
CG 74.505310 17.126887 34.189497
CG 74.021251 22.900605 24.094391
CG 64.542511 13.787488 27.707154
CG 68.438189 13.261757 12.470453
CG 68.648291 2.857144 123.033830
CG 65.727097 17.119606 7.555991
CG 61.684405 2.307283 30.270686
CG 72.315797 17.368710 30.469304
CG 78.440623 4.137868 9.886131
CG 73.666807 5.340963 8.716177
CG 80.317719 122.883851 7.700186
CG 71.459357 1.291651 1.950091
CG 72.513015 114.978466 99.478713
CG 62.493116 104.185318 101.090632
CG 70.811836 118.104484 114.783606
CG 58.581876 1.461180 6.077413
CG 80.148528 6.540387 116.925145
CG 62.188515 113.582406 5.475864
CG 78.797621 8.522505 22.606848
CG 59.760711 124.355071 29.180932
CG 71.806954 2.580573 12.316600
CG 66.230052 1.648781 4.789943
CG 61.476523 6.450404 17.829823
CG 70.012606 20.422427 15.122413
CG 66.518345 9.467710 8.011319
CG 78.054424 23.581652 4.510205
CG 55.740363 117.002567 20.604521
CG 72.762216 9.993033 26.434643
CG 61.541775 11.702353 20.927368
CG 75.892519 31.801280 22.366131
CG 60.002225 10.761455 36.127831
50
frame
CG 61.337677 123.447248 3.323342
CG 70.107780 12.173489 112.237632
CG 70.632997 18.582708 96.134516
CG 71.771558 8.406374 104.315008
CG 69.414109 14.458199 113.440446
CG 70.113987 11.709680 8.702909
CG 63.646273 21.307170 6.819683
CG 63.624856 4.753479 12.856442
CG 62.688149 10.786992 5.403140
CG 71.316720 16.393207 0.997904
CG 65.831279 24.626456 106.086014
CG 64.174809 16.964549 22.992673
CG 57.814862 12.736210 14.921263
CG 67.948705 20.134046 34.054855
CG 71.080281 28.866907 14.887155
CG 70.597482 28.803704 32.183738
CG 67.012935 24.074555 32.743762
CG 77.910875 20.193579 27.042066
CG 68.589446 21.327604 26.094812
CG 60.516430 17.512092 36.288885
CG 63.979618 6.734525 23.990335
CG 67.727431 8.750178 5.298294
CG 66.263281 4.287795 11.526473
CG 63.543183 13.017987 22.005767
CG 63.368076 2.552496 25.067718
CG 78.095023 28.276849 12.649923
CG 68.869409 10.727467 20.397697
CG 66.648304 24.808975 44.795906
CG 76.737535 11.039627 33.750347
CG 63.920019 4.661928 13.790757
CG 76.572547 123.956514 123.185931
CG 67.982222 2.487428 8.021758
CG 71.004183 8.773316 123.056949
CG 66.903792 123.858915 114.635244
CG 71.534623 111.909803 110.252969
CG 51.498667 109.599420 15.254301
CG 79.979773 10.800004 13.922387
CG 54.808345 117.009100 11.547903
CG 81.404031 13.879110 9.879597
CG 69.552495 7.954777 21.053497
CG 66.976429 9.744626 23.811346
CG 80.369284 13.494832 124.093283
CG 67.350854 122.420888 120.913196
CG 68.920062 11.124566 3.031002
CG 61.830588 120.532807 9.982255
CG 79.629406 27.596207 2.493270
CG 59.211155 9.125850 11.822211
CG 76.077076 16.817134 32.371728
CG 48.825626 122.057980 37.807142
CG 68.008087 16.291683 31.284396
50
frame
CG 73.605495 26.564871 2.067450
CG 70.269700 44.521784 103.698850
CG 64.893410 19.981680 10.604634
CG 63.031458 25.512957 14.024429
CG 62.720381 21.002886 14.450083
CG 61.309603 13.700315 10.353511
CG 63.380441 6.625366 6.136158
CG 68.083872 102.810402 39.416981
CG 72.036682 13.225144 115.695105
CG 66.940328 10.119029 4.448671
CG 65.848239 9.980079 0.936636
CG 69.222899 17.751571 114.401310
CG 68.560755 25.952252 116.529528
CG 64.292566 16.205928 16.743316
CG 64.219674 6.357531 23.184475
CG 74.815630 6.343420 14.514605
CG 78.047143 6.787561 115.149155
CG 69.887763 9.989793 118.899640
CG 73.926805 8.693744 120.097733
CG 70.511640 9.115584 120.890271
CG 60.337635 8.447467 13.725854
CG 60.340994 9.954140 33.458885
CG 60.828062 8.602166 33.587980
CG 73.270809 19.485341 25.711452
CG 75.599572 17.521372 22.997970
CG 62.718785 13.225043 35.986233
CG 69.103037 14.021240 29.790270
CG 68.143455 12.324978 9.022659
CG 60.791735 13.023146 13.919052
CG 67.472454 25.065553 36.927884
CG 64.002640 19.956182 37.413680
CG 68.003184 14.901946 24.197318
CG 75.738453 4.836682 17.874638
CG 60.479953 123.092580 26.572569
CG 74.808583 11.859771 17.256819
CG 67.595238 124.831750 124.829194
CG 63.270324 119.903602 121.970070
CG 68.824176 3.292841 6.939006
CG 68.158829 4.324229 7.791937
CG 70.225396 8.779430 124.377431
CG 84.560914 11.084379 120.699596
CG 67.739188 2.355034 12.129220
CG 70.198423 2.960787 15.350886
CG 80.595860 10.775318 124.845444
CG 64.386569 7.337987 2.226547
CG 68.381448 10.331394 17.851839
CG 61.746764 4.819352 20.868300
CG 61.849059 11.722316 11.566223
CG 69.952963 7.618678 19.693777
CG 58.993350 123.854434 31.394551
50
frame
CG 75.148755 93.883542 81.922265
CG 69.429609 65.915533 0.821263
CG 68.481251 63.484830 7.312018
CG 61.249137 42.501341 15.292949
CG 59.560327 13.278376 28.056614
CG 61.978182 122.908433 33.737901
CG 68.101481 102.568691 42.866868
CG 61.682712 1.543833 13.215936
CG 62.633782 94.382057 50.350829
CG 66.090896 112.035054 15.027649
CG 74.077232 8.167605 12.339956
CG 67.126809 9.581403 122.885040
CG 73.545985 0.321867 12.542293
CG 75.308416 4.433346 88.412431
CG 76.931796 4.824129 94.710097
CG 63.861929 121.379932 95.063982
CG 67.777185 118.962161 117.805677
CG 70.076439 119.007860 107.407848
CG 66.753413 120.841910 106.897461
CG 69.633314 0.919971 118.964790
CG 74.444756 13.287294 3.844078
CG 72.584011 16.201453 13.307686
CG 72.804972 25.943260 25.542132
CG 59.584546 5.845434 42.415374
CG 62.185124 20.929816 40.165069
CG 67.685520 3.680079 20.682134
CG 64.493963 20.551193 17.101645
CG 62.815003 12.328294 30.014241
CG 61.697742 26.557136 34.630225
CG 67.679573 16.105280 17.466838
CG 61.293004 22.165548 34.672568
CG 64.892449 19.362038 51.289036
CG 57.369558 19.132173 57.160767
CG 79.971989 22.996012 31.751895
CG 57.953676 6.709525 31.607100
CG 82.460390 21.612381 18.661972
CG 63.819331 6.423002 12.686273
CG 83.005213 14.680097 113.140260
CG 63.684931 118.742151 110.040007
CG 73.539253 122.312072 120.776645
CG 61.714032 120.532555 1.454980
CG 75.057676 7.131721 124.576859
CG 82.426823 22.434830 1.170411
CG 59.448305 123.170829 28.885918
CG 79.728677 17.192443 25.631443
CG 56.026453 113.396505 10.293543
CG 77.369539 10.363050 8.823769
CG 54.593379 113.665662 18.775297
CG 67.731970 8.597278 11.341461
CG 66.211828 3.560050 124.676336
50
frame
CG 62.166622 93.182461 15.892770
CG 67.600232 93.696649 114.703204
CG 67.494721 78.462163 105.927663
CG 71.315042 39.141026 16.826043
CG 72.266726 29.271124 26.641842
CG 65.193015 19.016891 29.813605
CG 55.935919 1.204452 46.599979
CG 63.700564 114.615907 35.717184
CG 66.637087 117.620776 33.015451
CG 66.664262 117.006374 32.239417
CG 64.956370 87.877762 35.963756
CG 77.308433 95.523344 11.933206
CG 75.877087 111.716807 92.203239
CG 71.831889 112.541645 103.161308
CG 70.993802 112.469848 89.581437
CG 75.819655 119.028932 75.495776
CG 63.512168 118.391415 77.644171
CG 64.582103 114.945433 101.623676
CG 69.284454 123.257947 124.825811
CG 71.719494 4.588439 1.006137
CG 75.757247 6.228264 120.709830
CG 72.888563 6.427947 0.328654
CG 70.234163 8.709462 9.878335
CG 71.204308 18.984443 5.120690
CG 60.999659 8.912151 17.104679
CG 59.221664 25.832512 36.571480
CG 57.157303 15.774878 44.277040
CG 63.898793 23.571640 34.699243
CG 69.165762 15.966512 33.577485
CG 54.779608 16.574815 52.539651
CG 64.454117 19.199897 45.107245
CG 66.652094 24.387302 30.882465
CG 62.974371 28.793467 35.721848
CG 63.438534 31.740335 50.980651
CG 72.432741 28.252033 40.248042
CG 67.734910 19.840542 29.855398
CG 82.567675 22.065578 13.922050
CG 64.186734 0.600499 14.685833
CG 77.542716 12.046043 6.982303
CG 72.753890 6.817776 116.167836
CG 70.010116 6.789820 119.786677
CG 66.259835 0.429581 8.077560
CG 58.159651 116.189306 17.271460
CG 70.968423 7.374063 2.687001
CG 69.037154 121.640995 9.684768
CG 73.285620 6.739166 26.169568
CG 62.203613 120.432178 17.049262
CG 79.636807 3.027791 122.366843
CG 61.857231 116.449558 116.277771
CG 67.399394 3.193090 123.672483
50
frame
CG 61.644222 71.140103 15.870400
CG 62.386611 64.773653 29.814898
CG 66.902612 51.059104 44.639325
CG 69.542314 75.736728 0.574885
CG 64.749673 63.690369 124.880920
CG 70.881678 35.574764 20.804387
CG 74.878090 46.001476 5.990716
CG 68.274162 9.504902 53.697820
CG 62.478817 0.757151 23.060028
CG 71.541471 92.944320 31.690462
CG 72.159966 105.794275 112.185927
CG 66.900543 93.212833 1.482855
CG 64.198285 77.129465 2.099114
CG 73.814802 84.939500 116.546572
CG 66.551937 99.823239 88.528236
CG 67.591939 105.238254 112.151265
CG 77.825976 116.484912 100.420142
CG 75.731106 10.987753 94.026300
CG 72.293775 27.482189 69.263063
CG 104.509768 22.521954 85.655361
CG 62.835588 119.598130 5.896483
CG 34.230000 103.130338 53.723706
CG 65.402396 95.708721 94.617097
CG 69.136426 11.047555 122.247306
CG 70.074256 16.347839 10.522401
CG 64.850430 23.730260 19.168094
CG 66.774097 16.088266 32.111955
CG 54.790638 20.778411 55.422343
CG 53.130700 14.384494 57.757567
CG 70.537329 29.774879 43.750658
CG 65.486760 24.470143 37.226947
CG 56.468745 27.815109 49.835495
CG 78.153765 27.789734 30.274147
CG 59.189291 20.532578 22.422235
CG 78.316636 38.659488 22.684147
CG 57.912064 18.127334 39.434514
CG 69.324927 22.027759 38.781438
CG 71.620675 25.285886 32.765708
CG 77.107943 24.643146 24.936318
CG 61.931125 10.536243 31.434850
CG 74.679350 7.324630 20.883896
CG 64.708687 2.645066 0.069613
CG 64.564649 116.969709 123.589953
CG 72.297929 121.034361 7.772251
CG 50.126677 108.463669 6.095560
CG 81.724229 7.805139 111.589308
CG 67.850184 115.719314 117.644498
CG 70.629520 9.414959 5.246103
CG 73.977903 124.188509 5.808639
CG 71.031673 112.712420 116.123920
50
frame
CG 67.532063 25.600211 52.760355
CG 64.007578 43.606467 36.341931
CG 60.329117 65.742004 21.282499
CG 59.668814 53.612441 43.250409
CG 71.323247 60.164694 32.101222
CG 70.449421 75.735246 7.865721
CG 71.988377 41.343187 6.314519
CG 77.643943 36.768938 101.451713
CG 82.662374 15.699737 116.170037
CG 66.455916 4.975223 115.479354
CG 64.189528 107.684672 12.112305
CG 64.539805 90.087882 121.027844
CG 67.330531 97.184614 122.107963
CG 58.572908 88.638162 122.616382
CG 74.334703 83.507210 29.033029
CG 74.249353 104.260736 117.566006
CG 75.775369 6.397712 92.808469
CG 89.586406 8.459422 64.343680
CG 97.178115 108.404476 71.390454
CG 35.253032 124.524706 22.907930
CG 48.264336 0.031412 30.247503
CG 99.268192 0.278572 19.617611
CG 53.592849 20.553941 119.111445
CG 48.458786 95.554292 106.329075
CG 64.445350 112.679033 113.276794
CG 68.435813 118.826776 11.556941
CG 63.041201 22.653748 23.627091
CG 72.404741 20.214783 23.067766
CG 67.449006 35.467366 35.124269
CG 55.058877 21.900265 46.334037
CG 62.624660 28.711632 48.236988
CG 75.887222 25.449176 27.132443
CG 59.526477 26.747090 34.229070
CG 73.662906 26.205481 33.114055
CG 53.895083 7.392492 34.900166
CG 79.830607 37.265442 21.135591
CG 60.302374 32.955260 36.893781
CG 66.206210 31.656026 49.903476
CG 54.192232 12.397802 54.439049
CG 75.027431 22.960146 38.613286
CG 61.424816 9.905546 29.333216
CG 71.477721 3.127227 32.825692
CG 74.480372 10.497176 9.006097
CG 60.024879 115.363540 112.574894
CG 85.357729 6.387867 103.694303
CG 50.052743 103.104874 116.523809
CG 74.453673 4.689258 116.566219
CG 66.770949 103.051244 108.321658
CG 77.332871 119.096471 115.829625
CG 77.701630 4.029362 12.722054
50
frame
CG 62.174065 39.052799 42.365601
CG 65.894288 22.528561 57.711967
CG 70.374900 27.602719 47.493349
CG 69.621671 42.121717 37.180474
CG 64.584212 44.741252 40.555090
CG 69.135596 37.599213 84.642027
CG 74.977168 42.291210 52.397353
CG 70.856185 55.632839 77.009627
CG 67.509038 32.077634 104.740272
CG 75.550871 32.021992 82.965132
CG 73.627093 7.554245 111.501129
CG 65.357151 8.678508 124.831403
CG 68.241350 114.288154 21.346485
CG 74.323860 116.786187 10.566886
CG 71.444415 6.024177 102.583506
CG 83.949507 115.334428 88.869107
CG 91.110173 78.279235 110.614071
CG 81.064185 81.980098 104.102386
CG 78.370604 112.947385 88.778323
CG 103.067750 104.281732 95.775953
CG 53.379931 4.485427 39.022141
CG 38.973255 6.184223 40.728124
CG 44.757226 117.715134 100.877936
CG 55.877157 11.818006 123.225661
CG 43.866188 7.485689 6.905277
CG 53.538682 113.261914 111.640681
CG 67.295837 115.830587 114.643119
CG 65.745096 7.810615 2.250231
CG 73.052303 20.223018 8.433311
CG 77.644394 26.095223 10.094903
CG 66.988157 28.717567 22.650853
CG 60.301229 22.683681 37.948148
CG 56.907284 14.045666 43.864993
CG 73.194920 31.600905 36.203072
CG 65.344313 36.930270 41.835977
CG 58.929731 22.611764 52.037240
CG 59.993511 11.595845 43.637341
CG 63.898219 19.599894 30.110808
CG 63.740881 29.211600 36.230908
CG 59.912504 15.517747 47.209101
CG 64.839492 18.417498 43.505094
CG 68.245368 17.217091 20.041676
CG 70.490416 8.750182 15.969762
CG 70.873711 7.813845 14.260161
CG 71.175152 4.902907 0.808640
CG 73.810796 116.360923 110.621589
CG 73.190019 109.552856 105.092552
CG 72.491495 119.113111 123.012236
CG 69.570297 121.797109 123.636801
CG 74.460691 112.376656 105.691351
50
frame
CG 68.886844 24.322307 53.661051
CG 68.161000 40.199836 39.280758
CG 67.221875 16.575072 70.442497
CG 74.191500 7.719378 87.559573
CG 74.896245 9.778390 89.819746
CG 69.963353 18.070317 52.306982
CG 60.022284 39.727525 64.169799
CG 65.796204 18.247376 64.679084
CG 67.048901 46.845702 32.003135
CG 68.474818 42.265238 110.496422
CG 71.845215 54.669470 94.577807
CG 86.207972 49.910150 103.622592
CG 79.966262 47.816028 82.145325
CG 88.434823 32.789735 89.938610
CG 88.212286 109.053759 99.001560
CG 79.731117 94.102608 3.938195
CG 72.531450 115.565780 96.161423
CG 80.732528 97.944388 119.607720
CG 81.346764 89.944165 9.314503
CG 32.582927 101.905862 7.888297
CG 48.755354 96.454822 55.822169
CG 99.863149 111.574385 9.865182
CG 53.599598 120.555127 113.664000
CG 51.169686 16.957513 96.836333
CG 55.463944 123.615105 94.992232
CG 52.057964 28.967368 118.148391
CG 51.210058 6.289677 114.179903
CG 60.493685 120.758876 101.859258
CG 64.347069 108.231582 103.175964
CG 67.706542 6.691140 119.905349
CG 71.710700 5.598600 2.110150
CG 69.350344 28.208343 20.051842
CG 80.084003 42.986817 26.737918
CG 39.351096 15.183702 56.414527
CG 67.027713 18.737063 51.199586
CG 55.462053 13.324264 44.303372
CG 69.408858 32.748708 40.913952
CG 53.925951 10.137594 50.076622
CG 69.700944 11.710437 30.343909
CG 59.249972 18.947887 13.125484
CG 70.933404 24.484277 17.542399
CG 60.465815 19.989380 30.919934
CG 61.106429 12.755641 31.857474
CG 81.149566 16.992625 18.692759
CG 58.757071 112.099249 21.213625
CG 92.000353 24.729049 19.282288
CG 68.131693 124.055080 12.775478
CG 79.343605 1.248020 107.084327
CG 72.369536 102.854262 95.586143
CG 63.271813 112.211360 108.924176
50
frame
CG 68.254371 28.740491 55.257129
CG 70.744785 11.313383 75.808050
CG 72.759290 21.728139 64.906553
CG 67.532956 28.667725 51.389760
CG 64.665378 26.815038 57.948383
CG 68.355809 20.688317 79.957540
CG 73.090020 19.430601 54.148634
CG 68.348525 40.917334 19.562170
CG 68.118537 36.466098 15.638113
CG 74.288875 40.848531 21.948209
CG 76.419687 40.513721 0.542159
CG 74.367987 36.411606 98.131176
CG 82.880243 18.288816 105.577955
CG 80.024297 6.599810 109.068123
CG 77.206845 20.890026 99.755194
CG 83.231901 7.138953 93.943416
CG 82.778079 97.773178 1.347453
CG 60.445338 101.710724 3.091966
CG 56.480917 107.976285 7.864404
CG 92.666540 102.297337 11.323301
CG 72.790785 111.316478 107.285274
CG 31.780348 116.741695 123.734020
CG 61.358147 117.432598 8.507148
CG 69.243774 121.200631 3.529629
CG 55.231738 10.894836 118.029962
CG 56.591018 119.076087 97.378260
CG 61.001217 0.037592 101.134680
CG 58.842791 11.042132 118.404958
CG 61.924086 15.027391 123.150883
CG 65.623632 6.686068 122.468644
CG 66.919911 16.434482 7.193603
CG 61.114604 10.098689 20.663885
CG 57.224983 6.287359 31.028710
CG 76.752812 27.220968 25.943421
CG 61.872331 29.360541 36.061835
CG 59.296730 21.513429 48.472468
CG 58.304512 8.120169 42.680074
CG 66.375342 22.013669 26.066738
CG 61.174428 25.056392 31.344762
CG 64.886258 16.346541 40.498867
CG 60.448168 12.349130 31.306997
CG 70.385853 15.349275 17.052613
CG 71.205522 11.985534 17.705035
CG 65.645307 11.065081 26.152282
CG 78.141768 19.796259 18.249551
CG 66.003073 119.075687 2.453681
CG 75.512606 120.083477 118.609082
CG 70.999372 120.757658 3.492298
CG 68.817371 0.353642 124.446860
CG 75.593465 113.611434 102.963922
50
frame
CG 74.063465 6.723402 88.554622
CG 68.698004 22.609285 63.804888
CG 64.874084 34.059353 47.115093
CG 65.569913 26.739877 61.882495
CG 70.406739 33.438824 31.640403
CG 67.188616 47.361671 10.700774
CG 71.690394 32.240645 10.613581
CG 77.846585 34.519012 34.626222
CG 82.644138 18.911233 23.932431
CG 75.197977 26.632836 9.144189
CG 76.764544 1.259962 25.999982
CG 71.180392 121.115672 32.335630
CG 70.546564 9.663949 16.804088
CG 69.489676 13.906878 110.315016
CG 75.196791 4.680039 4.500354
CG 61.925769 11.878294 119.785979
CG 61.615662 19.598076 1.068720
CG 90.757109 11.962981 112.103382
CG 80.424202 121.420436 100.680726
CG 55.288150 121.603475 107.549439
CG 65.199039 1.639068 98.144512
CG 72.789879 114.233105 121.832248
CG 66.790475 122.068361 112.097007
CG 41.798127 100.207352 0.546670
CG 67.741708 109.606930 10.661728
CG 74.013548 111.634574 9.031284
CG 65.863658 14.134633 3.983968
CG 63.506077 9.055537 119.288295
CG 61.702763 27.264069 6.449605
CG 53.045796 20.410676 20.403251
CG 48.896253 12.211638 24.793106
CG 67.918159 6.023024 6.883313
CG 57.259114 6.822312 12.418469
CG 70.031624 9.803126 14.118886
CG 57.731635 0.557065 19.413860
CG 80.835713 29.191472 7.307435
CG 60.086295 27.370777 23.670157
CG 64.893663 23.928200 40.015673
CG 56.106719 10.195594 42.468518
CG 70.582684 17.622008 29.955476
CG 66.695420 14.038032 31.924292
CG 68.098506 7.117239 34.824498
CG 74.126687 15.645222 17.675969
CG 63.408725 123.130690 123.737516
CG 76.453879 8.798460 116.884759
CG 55.223677 117.907469 7.531672
CG 71.828349 13.080422 7.547529
CG 65.140201 114.296033 123.944163
CG 78.859824 2.194857 1.677699
CG 75.725366 11.037193 20.830256
50
frame
CG 64.842402 29.975968 53.191429
CG 69.226537 25.991859 65.771705
CG 70.799234 15.656198 62.186960
CG 71.326935 40.256993 13.079774
CG 69.884803 41.487201 12.622105
CG 78.005859 29.676781 10.708145
CG 77.439750 43.793881 10.420250
CG 76.414758 16.413962 123.271064
CG 75.465062 11.262331 21.979481
CG 78.714328 104.148408 45.939144
CG 72.002011 121.581894 32.833182
CG 73.894328 3.464789 26.677196
CG 64.779693 115.468025 38.535795
CG 58.731316 0.313594 58.888783
CG 53.295211 9.445989 27.484368
CG 76.244984 15.225384 17.667702
CG 76.919388 28.287547 95.566819
CG 51.017838 29.945128 100.230383
CG 69.537700 38.348371 99.718977
CG 73.884900 27.149276 87.810279
CG 68.140972 124.122648 123.931670
CG 74.557242 117.790774 95.378370
CG 62.368091 105.450824 111.141975
CG 89.686705 122.594264 120.207435
CG 68.974640 113.579966 121.841714
CG 51.951067 7.456211 24.861735
CG 66.750156 120.437918 37.375847
CG 66.954746 7.496999 40.322748
CG 54.860713 122.636060 26.516585
CG 62.655198 12.640041 8.057347
CG 62.697241 14.914076 4.024428
CG 48.699842 20.389184 20.632177
CG 66.825549 13.750275 5.611074
CG 51.984930 0.327714 123.060289
CG 74.703243 17.350726 118.856395
CG 54.830940 123.401937 13.149330
CG 73.624407 11.674198 13.877350
CG 69.916496 14.641284 13.471971
CG 78.787868 22.817295 19.557090
CG 60.231968 11.330776 33.589111
CG 72.682871 11.722846 26.247304
CG 65.789878 8.382008 9.332750
CG 61.494966 121.763011 9.366498
CG 72.535477 6.302321 14.156605
CG 50.324526 114.347455 12.636828
CG 81.949444 15.941539 119.421173
CG 63.896283 121.673164 3.564263
CG 73.387389 24.826908 22.811782
CG 69.530624 13.463102 29.718843
CG 70.501829 5.431936 20.915599
50
frame
CG 66.689863 39.136100 32.846085
CG 66.974324 40.774039 6.344613
CG 72.151123 46.305503 5.629782
CG 78.930546 23.748926 28.392633
CG 80.775776 19.691021 32.107186
CG 76.978462 17.997994 14.995771
CG 75.972898 124.796180 19.978977
CG 76.055002 118.781823 28.869546
CG 69.274628 3.896515 19.007498
CG 69.995233 10.096852 12.601796
CG 67.734720 122.200772 37.479145
CG 60.919668 109.727338 63.266016
CG 61.763689 3.076340 49.619166
CG 75.135001 2.345837 38.100315
CG 72.147711 15.159119 20.619044
CG 47.990388 21.755732 17.625811
CG 54.632184 20.113268 20.461506
CG 69.300307 30.211633 120.189896
CG 57.505942 24.760998 114.030977
CG 71.557965 20.889878 111.062335
CG 74.831826 25.653784 88.495537
CG 74.682099 27.222528 107.421517
CG 85.810027 9.036167 0.952081
CG 70.420878 11.464647 121.992624
CG 66.118662 9.183617 18.895932
CG 83.714130 0.443099 16.687171
CG 57.299906 113.342891 19.076377
CG 51.299249 121.686468 32.825274
CG 70.503465 120.583604 34.653502
CG 62.648305 122.396182 37.187329
CG 66.057836 3.397980 14.859971
CG 62.386073 5.782573 116.828831
CG 59.607682 17.910828 120.596433
CG 57.663798 22.342660 12.644790
CG 59.880346 10.195724 8.399969
CG 61.716063 2.049288 124.927655
CG 74.784530 0.264383 119.001350
CG 65.462843 119.373373 2.319753
CG 73.732083 4.547630 123.812972
CG 78.328374 8.931740 115.002899
CG 64.279120 4.517360 120.663839
CG 65.816264 5.246509 13.628609
CG 59.982407 124.249774 18.359477
CG 65.776132 9.069404 10.461647
CG 73.831082 10.251767 18.302890
CG 66.906955 12.914409 35.351322
CG 66.067293 12.811981 32.888314
CG 74.749557 12.744235 18.318730
CG 61.167485 9.998340 20.432790
CG 65.712436 23.472222 30.002143
50
frame
CG 75.195624 53.043394 83.362246
CG 77.388746 41.661269 121.673748
CG 76.112217 33.894136 3.008479
CG 72.588178 22.269325 10.066778
CG 76.820622 3.282133 9.815683
CG 76.193878 112.963739 47.660054
CG 73.087553 109.358039 39.038676
CG 67.786453 11.282748 32.122836
CG 70.457097 111.482651 37.835917
CG 57.556371 0.432357 47.316772
CG 60.686486 7.241110 36.591465
CG 70.312286 18.503869 14.663352
CG 74.909733 14.474029 22.590234
CG 50.667913 15.111651 13.159225
CG 59.491947 10.713535 42.280400
CG 72.009890 13.770177 20.076695
CG 56.724754 14.967852 32.982479
CG 62.839756 7.064691 33.463983
CG 70.163582 8.551241 12.974797
CG 63.402026 27.196353 11.108763
CG 73.645278 36.721364 2.920778
CG 71.637643 33.502434 13.870874
CG 71.762927 59.801939 116.581532
CG 66.844308 25.301230 13.693130
CG 80.464960 13.442951 12.823510
CG 60.876277 122.690495 8.455070
CG 76.216481 15.732045 15.815160
CG 82.866871 112.240762 5.502995
CG 61.343693 123.176152 9.227210
CG 59.716329 116.235672 11.020019
CG 60.397712 121.077828 27.966053
CG 74.097336 0.726930 30.919826
CG 58.430090 122.334870 21.255171
CG 75.332324 4.313508 116.390541
CG 56.254900 0.810438 124.093005
CG 75.938436 20.296442 122.045675
CG 51.554798 0.941598 121.623604
CG 74.970846 1.272393 100.450875
CG 57.998712 105.272403 97.669270
CG 66.089833 112.396683 108.367400
CG 68.059212 120.463128 116.757724
CG 72.785811 4.322947 116.770350
CG 80.668952 24.500601 3.930765
CG 61.039367 7.432669 35.121736
CG 73.716030 25.926008 37.523079
CG 57.587530 3.279784 32.955096
CG 75.028225 26.060485 33.923527
CG 51.575785 7.569837 43.046764
CG 69.944337 26.274685 31.898253
CG 62.482219 15.168455 18.808253
50
frame
CG 86.788465 32.191444 100.038449
CG 80.982597 32.279738 82.169233
CG 78.390205 7.190313 100.870212
CG 76.448346 5.971212 0.703728
CG 66.316284 4.007481 22.825776
CG 65.059638 10.212893 12.079375
CG 67.255667 7.726838 34.621262
CG 62.573512 103.506884 58.740685
CG 59.928317 6.445803 56.132695
CG 73.807061 6.205101 34.201087
CG 72.680048 11.835671 17.466388
CG 53.395588 24.411216 9.678936
CG 50.742828 17.903137 14.006311
CG 72.764525 25.619400 19.676902
CG 59.987781 15.782863 13.336124
CG 61.331380 1.025983 43.174807
CG 81.102233 0.005024 25.080028
CG 64.771840 12.381748 33.650520
CG 69.236906 29.210447 54.253880
CG 69.445737 22.417312 50.229209
CG 59.889366 31.284765 57.395009
CG 61.731160 36.752909 27.197550
CG 59.398818 18.160035 32.327840
CG 74.117956 36.898054 14.520650
CG 68.259803 48.097689 116.167408
CG 76.202598 32.670233 5.216546
CG 79.431205 4.930074 121.191412
CG 65.715042 13.220674 120.824614
CG 73.137530 2.783362 3.088586
CG 86.062863 124.543991 4.082152
CG 66.580919 116.201397 7.526090
CG 57.899044 112.406529 15.082037
CG 76.743554 111.212127 20.646817
CG 68.447679 112.561240 25.316745
CG 75.431121 0.145302 124.658849
CG 61.663541 110.612110 102.045355
CG 65.550360 120.643959 96.945685
CG 54.987775 0.203802 108.754413
CG 62.999902 4.992902 114.166906
CG 61.202543 120.096660 106.789508
CG 74.748186 124.018450 109.098616
CG 66.295872 124.272867 4.291367
CG 68.231687 3.375449 14.919907
CG 80.928330 19.195918 7.536935
CG 61.651300 14.005314 21.258009
CG 68.812837 28.531728 36.104195
CG 55.536329 14.593030 37.412445
CG 66.087605 27.180877 30.276196
CG 61.938960 16.083498 35.216582
CG 61.029492 15.545581 45.225797
50
frame
CG 82.852012 111.311562 101.690502
CG 84.585481 112.399855 113.473337
CG 77.644702 11.166709 113.658531
CG 71.623782 14.451590 94.249883
CG 70.857717 14.131154 116.953145
CG 63.492951 3.479183 17.309049
CG 54.627955 13.868738 31.017718
CG 69.851459 23.938098 11.088091
CG 70.914488 20.264921 9.634871
CG 56.599439 10.953146 20.147462
CG 50.634073 17.597382 33.074134
CG 73.839772 4.444716 42.767216
CG 65.598149 18.196341 16.248163
CG 57.974603 3.497655 30.345120
CG 75.351662 10.154523 13.874521
CG 69.486538 26.473210 16.991105
CG 61.110991 29.724551 44.918306
CG 76.905195 23.107748 58.120886
CG 65.410513 16.325498 58.688349
CG 62.622340 24.609894 60.787405
CG 61.218389 11.608581 62.581310
CG 65.403489 19.150977 63.015106
CG 66.083650 27.154318 49.584203
CG 62.525413 35.272676 18.934935
CG 63.038548 11.804397 26.708154
CG 77.610440 43.451125 119.634936
CG 62.217267 43.769336 111.623687
CG 80.721929 35.931140 3.597628
CG 85.746530 7.460331 119.374264
CG 60.993350 5.615324 1.766749
CG 90.068095 121.264609 120.616688
CG 86.353647 112.916002 117.843581
CG 72.462553 116.586883 111.400379
CG 57.060902 102.116206 118.014220
CG 72.429048 96.268395 122.057185
CG 58.377175 102.609847 12.245477
CG 77.379944 120.821244 121.419472
CG 59.173912 110.784440 111.328657
CG 72.763019 8.162257 109.719568
CG 65.629980 17.797770 5.275459
CG 55.424344 10.671707 13.711796
CG 70.186357 10.206442 124.911237
CG 60.162877 120.105526 123.532443
CG 61.670039 9.708407 8.625522
CG 64.670514 4.326327 10.910407
CG 74.848416 26.188902 5.366655
CG 61.123526 17.758488 20.676561
CG 70.525644 23.927849 38.357756
CG 51.528663 11.735532 49.119878
CG 64.340857 26.279527 46.228119
50
frame
CG 74.844778 92.318980 0.859178
CG 71.419140 100.357487 119.052716
CG 74.939477 110.108244 113.944703
CG 72.168917 116.051840 15.324677
CG 67.585965 14.015271 114.425819
CG 74.293720 32.578515 98.984304
CG 79.047273 23.959645 83.275008
CG 54.151035 36.863422 108.180277
CG 48.900683 19.863355 5.511228
CG 65.539890 29.166959 17.820728
CG 70.943806 14.592072 15.397216
CG 55.848749 5.611829 24.092847
CG 76.188052 123.901518 49.031918
CG 73.868444 14.284098 28.417070
CG 62.201211 29.038681 58.818031
CG 72.470800 24.243373 46.950858
CG 66.037111 26.932664 45.050414
CG 57.908675 33.106847 43.955990
CG 61.202878 19.430309 50.427854
CG 68.405289 12.145350 65.198304
CG 74.141754 21.941804 47.863401
CG 63.491947 15.480841 52.761874
CG 66.094098 17.710851 44.677449
CG 65.170945 10.351718 57.350703
CG 69.505902 38.828583 33.456602
CG 55.319790 18.989696 28.016212
CG 78.537613 23.926155 30.162440
CG 72.107974 22.889486 118.504216
CG 69.438679 44.831766 114.622586
CG 94.916939 20.739944 108.561405
CG 75.732690 9.639651 104.100115
CG 69.482035 0.056554 101.176290
CG 75.432153 102.388304 103.273496
CG 89.918028 109.931127 98.072182
CG 58.824121 109.364655 114.668859
CG 76.055326 112.864097 118.415109
CG 59.369616 99.708343 17.295395
CG 84.469445 4.949484 29.149872
CG 60.583685 118.353459 25.604513
CG 67.847263 122.964453 4.033010
CG 65.778642 10.161479 122.481058
CG 51.758483 16.818325 10.535471
CG 61.130861 27.428446 8.689288
CG 57.131604 3.691880 0.860562
CG 66.858003 14.884723 123.187460
CG 51.139945 114.121102 15.895095
CG 74.671817 14.694440 20.064017
CG 57.326142 11.714010 22.614255
CG 76.192863 36.764904 27.991610
CG 57.328081 16.790296 39.416141
50
frame
CG 62.281212 101.832711 9.288015
CG 64.343936 100.501674 18.161592
CG 63.824613 95.062064 12.392641
CG 74.031658 120.794789 106.953113
CG 80.936864 120.909600 96.160066
CG 64.650599 13.135167 97.689979
CG 57.493131 30.249022 102.609732
CG 74.505712 18.745049 103.341645
CG 78.729543 31.164121 94.280876
CG 58.937152 18.956259 109.545959
CG 67.661508 10.912064 16.510089
CG 74.161366 36.306397 13.560004
CG 59.609167 30.737855 37.897393
CG 69.883824 27.880963 61.863895
CG 70.727900 13.449966 58.528960
CG 56.866836 19.937263 68.018992
CG 66.109896 17.671505 59.263142
CG 64.927484 10.403724 52.444071
CG 72.849319 32.699934 40.849187
CG 62.595325 27.878106 24.258961
CG 60.710607 19.721925 45.113894
CG 73.253374 14.855097 43.189696
CG 70.636693 20.186778 44.441452
CG 65.969023 16.642883 48.175946
CG 70.149158 11.687729 50.892861
CG 73.774709 6.739369 58.482274
CG 67.893658 22.195109 26.080674
CG 69.934723 16.956499 20.567800
CG 75.538029 10.081150 8.617596
CG 68.080006 23.232327 99.570757
CG 64.213721 24.201105 97.332833
CG 88.366687 13.916057 94.474145
CG 74.025771 13.542499 103.635060
CG 70.368586 3.764938 113.285461
CG 86.406897 119.240968 116.250213
CG 89.934619 124.331445 122.230103
CG 68.497098 124.582112 10.259916
CG 61.993048 109.721253 11.283422
CG 67.636998 112.849046 25.086199
CG 63.442563 124.969716 34.066291
CG 64.609165 5.564440 23.101311
CG 63.570601 124.724402 3.191789
CG 61.179049 11.408671 2.234143
CG 56.113649 17.230250 14.906864
CG 54.466539 15.314876 23.141112
CG 60.884356 16.163820 15.126671
CG 58.440972 11.759243 9.416973
CG 59.538302 2.713354 13.617853
CG 64.002311 3.218667 10.011643
CG 74.964383 25.807080 1.816562
50
frame
CG 55.811942 107.888609 25.351439
CG 63.623496 116.559570 121.258743
CG 68.146717 1.351076 112.028594
CG 56.911522 113.274860 105.420746
CG 51.267626 117.102978 0.351696
CG 74.339989 106.534802 114.423214
CG 81.065140 116.505291 112.514736
CG 71.642477 4.059782 99.819578
CG 71.769781 13.685027 115.673346
CG 87.710309 25.886605 108.235739
CG 66.462839 54.725056 109.474289
CG 68.522056 29.668128 29.314840
CG 68.256053 35.548553 22.202932
CG 54.216627 31.417600 44.903486
CG 60.934862 26.635200 42.382861
CG 70.661626 13.759923 55.465864
CG 68.070858 16.050007 56.386196
CG 70.103736 23.167247 49.991899
CG 60.069122 7.856330 48.506202
CG 71.347220 18.616519 42.831862
CG 71.384880 25.905746 29.373407
CG 62.399034 31.189297 26.880432
CG 66.389657 11.527097 48.589070
CG 80.984481 16.223725 37.636387
CG 69.540900 124.302196 42.677979
CG 78.858261 21.043336 25.398905
CG 67.459666 119.086690 35.402124
CG 70.448082 7.842536 36.335678
CG 64.254703 3.242970 5.615049
CG 59.430607 6.871715 18.466224
CG 83.083471 11.879207 4.994855
CG 59.990694 28.868162 119.850204
CG 81.051574 38.414423 111.596071
CG 84.327915 28.387087 120.059431
CG 82.833110 29.749371 123.711161
CG 52.925295 1.953829 9.694154
CG 96.062798 6.171638 119.785243
CG 70.044920 123.809056 3.960727
CG 71.473976 10.768497 2.506057
CG 61.438742 114.948558 8.878799
CG 60.640962 110.964393 28.200616
CG 68.786759 4.254208 40.301126
CG 57.904986 114.516731 37.511039
CG 66.567379 11.558503 19.696769
CG 55.788160 7.713893 12.143909
CG 62.521291 29.602421 11.472363
CG 47.789900 6.184068 13.039418
CG 76.541419 28.829189 118.200888
CG 57.911523 3.872408 109.834968
CG 63.953196 111.576926 109.868515
50
frame
CG 65.584584 120.914828 113.633097
CG 57.211829 113.119846 6.171122
CG 53.897043 108.145069 7.817855
CG 68.098995 116.622908 124.537432
CG 76.579722 116.897469 106.671518
CG 62.611188 0.616551 109.204623
CG 62.536698 2.377035 114.029112
CG 78.512037 6.146940 117.861115
CG 76.795370 19.737447 109.784349
CG 64.329839 21.812312 2.100563
CG 74.293788 14.826882 14.410617
CG 69.273292 34.894103 4.116733
CG 63.059610 34.402975 22.751994
CG 72.217702 25.294768 32.507664
CG 67.944276 23.844706 43.521820
CG 60.737255 28.084987 43.509817
CG 63.992603 19.636985 45.370183
CG 66.553658 13.057353 48.822451
CG 73.084015 25.651151 42.599133
CG 64.489002 22.365903 38.981806
CG 64.211196 13.848452 47.262310
CG 75.365879 11.325081 45.040804
CG 72.957418 19.711909 29.530098
CG 65.575181 16.390012 33.313208
CG 72.715038 14.484059 34.548328
CG 69.346335 0.519535 40.192089
CG 71.222505 11.888481 24.284776
CG 68.071720 6.886972 16.202288
CG 72.890857 8.762665 27.238901
CG 73.039265 16.610562 8.867996
CG 63.320613 22.005969 1.738446
CG 81.098775 17.281845 4.863087
CG 73.854774 16.116604 5.271783
CG 65.058850 19.645014 124.522842
CG 77.039148 14.722592 120.421241
CG 90.703086 21.050398 119.337127
CG 62.612797 13.323289 5.877300
CG 68.735709 3.445440 6.347233
CG 71.569775 116.437874 13.753928
CG 71.548319 3.656041 22.071575
CG 66.889568 4.380992 18.331048
CG 59.979642 119.295112 14.102895
CG 63.899261 7.073318 17.847062
CG 59.056498 6.024581 26.318392
CG 60.916284 8.798133 23.339054
CG 62.463788 6.645936 8.330530
CG 67.278492 15.974666 121.218597
CG 53.090362 123.180294 0.295914
CG 63.323399 2.836934 123.787041
CG 64.085300 15.778062 115.560933
50
frame
CG 56.564318 113.752359 114.597565
CG 69.153112 119.211615 113.272077
CG 75.094854 116.070176 111.575777
CG 63.972086 121.781099 4.423533
CG 62.793709 123.830013 1.310898
CG 72.938780 13.851710 0.572822
CG 72.414407 19.980942 111.169295
CG 55.024293 19.768904 7.023642
CG 61.689030 4.577370 17.763693
CG 65.008210 10.290301 14.722429
CG 68.726335 5.064045 18.456206
CG 68.842361 10.224967 14.622803
CG 76.622829 5.403674 26.768523
CG 72.902119 28.527710 7.680946
CG 67.895052 28.982491 20.719582
CG 70.153206 24.663197 24.826142
CG 69.155620 32.330027 29.879037
CG 60.112154 30.912867 31.210970
CG 64.537057 21.029390 43.102103
CG 71.475284 9.125564 51.671446
CG 75.604536 17.386777 42.715798
CG 66.128002 10.422533 42.652316
CG 69.334224 11.654895 38.643970
CG 67.471087 1.910727 40.788290
CG 69.243346 23.760065 17.269075
CG 60.338891 12.210495 19.459709
CG 73.883281 22.406480 24.839417
CG 74.178642 15.170725 17.351443
CG 72.355946 28.503967 12.966374
CG 83.586734 18.248276 9.386955
CG 72.418519 11.544102 25.389749
CG 71.325670 7.009861 14.755293
CG 62.880566 0.017438 11.013733
CG 84.232803 4.931626 6.078344
CG 58.638674 3.623772 10.809557
CG 69.395465 14.739702 1.937969
CG 63.698614 4.712688 11.448069
CG 84.142715 21.021594 14.353611
CG 62.760154 13.662117 20.302422
CG 67.646095 6.927245 10.155001
CG 71.972900 10.707087 4.096306
CG 65.588576 12.460403 6.656047
CG 66.153448 16.301174 3.357802
CG 60.308020 121.187329 0.935805
CG 70.995762 7.115716 1.611843
CG 55.429059 107.623499 12.983265
CG 68.523835 121.729735 11.218786
CG 58.766074 0.601215 5.848363
CG 66.895209 24.421898 3.733439
CG 54.750672 15.159477 15.091582
50
frame
CG 78.397557 116.478185 114.204316
CG 65.061687 119.816262 109.113290
CG 63.761704 10.769596 114.893995
CG 74.593844 12.216896 105.045298
CG 69.474508 23.168192 1.242673
CG 58.198153 9.769346 17.182900
CG 57.562456 4.620297 40.295420
CG 66.115117 9.765186 17.664047
CG 59.609055 13.176024 19.383669
CG 64.682588 0.140370 22.913822
CG 60.480173 6.883107 20.050730
CG 71.289796 120.376746 29.622635
CG 70.051425 10.093567 3.092275
CG 67.328897 1.955680 20.487213
CG 78.389527 15.633977 5.428198
CG 73.600432 30.986899 3.293796
CG 66.733680 25.704680 15.923732
CG 78.788087 23.629506 28.469815
CG 68.753435 19.366490 30.086452
CG 65.191511 25.939364 30.059195
CG 64.347596 11.523769 38.516830
CG 68.739932 11.880732 38.717315
CG 66.072238 9.590173 37.876492
CG 67.839283 21.592492 19.589857
CG 64.070507 3.644168 36.289168
CG 80.081624 32.078694 15.826630
CG 65.402610 24.623979 5.493744
CG 74.287349 34.055997 16.384771
CG 77.419136 14.474644 16.159293
CG 63.138839 9.999895 31.580013
CG 81.969413 5.661295 13.140202
CG 72.856065 4.417980 18.242830
CG 75.089623 5.323930 23.980045
CG 56.285849 121.253877 23.938369
CG 70.769435 0.262410 21.117301
CG 58.093987 117.915290 34.347788
CG 77.229313 14.942327 18.496894
CG 51.734155 8.719678 10.502800
CG 75.614981 27.878553 122.012561
CG 72.294738 29.821378 0.125973
CG 61.214513 20.797115 5.574230
CG 73.092253 16.080756 120.691082
CG 70.511957 121.630095 116.301885
CG 73.013588 6.586980 116.114181
CG 60.416084 111.914437 119.428730
CG 72.179025 11.177740 120.327509
CG 55.735802 1.429886 11.627587
CG 69.894972 14.120255 24.638527
CG 51.227385 122.484807 29.620751
CG 65.036456 10.177334 18.102999
50
frame
CG 71.765957 17.283103 107.148260
CG 83.164324 15.892542 114.484631
CG 73.135921 15.078974 121.779020
CG 57.897718 15.302246 10.118574
CG 60.171608 7.213617 17.133696
CG 66.640081 12.129070 8.496124
CG 60.200644 13.264280 18.411597
CG 63.161763 118.962603 41.584962
CG 64.484628 0.061936 36.983128
CG 64.672759 5.908514 28.538212
CG 67.346143 5.442113 15.992437
CG 59.942314 7.865533 9.625904
CG 61.456229 6.846144 17.601784
CG 74.913804 5.544221 11.178460
CG 66.472734 4.753954 10.841125
CG 74.175249 122.006913 22.185381
CG 83.410482 6.031477 7.492551
CG 71.124178 18.406338 2.062697
CG 72.891417 23.143579 10.057852
CG 71.734206 17.929314 16.322128
CG 62.413922 21.457665 19.457283
CG 64.434654 27.904204 14.023867
CG 64.967620 18.405604 22.339000
CG 73.471384 25.955690 26.679812
CG 73.546576 30.513015 14.402239
CG 69.141406 21.511006 23.966186
CG 76.173847 11.421251 31.186363
CG 66.807574 10.609546 20.766273
CG 68.058096 10.048608 18.896503
CG 75.549945 15.771634 11.968628
CG 64.089933 9.989317 24.473643
CG 62.680896 2.220599 35.289029
CG 73.882521 1.312739 26.963331
CG 64.598485 2.244857 40.914157
CG 74.387916 6.824168 37.093705
CG 63.016069 6.587618 21.472896
CG 59.236441 9.517401 14.746300
CG 66.633787 12.727075 13.913061
CG 63.180250 12.268643 7.981773
CG 59.406532 16.163335 122.291352
CG 78.750276 17.537989 107.509964
CG 70.391611 11.824502 112.765165
CG 65.008884 8.718229 120.239141
CG 73.378076 13.221424 119.415155
CG 68.784058 13.845123 0.806557
CG 70.376365 17.656336 6.885456
CG 62.849269 6.979792 8.750889
CG 60.263260 3.441904 9.505684
CG 67.882651 123.732262 21.863860
CG 61.597878 117.073031 38.614034
50
frame
CG 77.545172 39.584511 0.488230
CG 61.995387 36.264164 7.995026
CG 68.946731 15.949298 10.537967
CG 75.900097 12.094110 19.215753
CG 65.549812 6.651398 11.912657
CG 60.916988 1.123706 34.979050
CG 71.122124 122.228391 15.161099
CG 62.537565 15.557782 12.315233
CG 67.320982 2.891529 17.345735
CG 61.359185 2.876134 24.491878
CG 63.314500 1.448406 33.207245
CG 68.589736 13.522041 15.205364
CG 68.973522 124.186004 21.315177
CG 60.207135 5.658038 11.410508
CG 70.568292 120.167990 23.553749
CG 71.971793 122.360335 3.842076
CG 66.797802 124.999607 9.833458
CG 71.744952 118.084122 9.128646
CG 74.232011 5.628126 121.219326
CG 69.244808 19.992439 115.021023
CG 78.552613 32.380074 115.053535
CG 72.602864 27.004774 6.165219
CG 73.945546 47.053615 121.872362
CG 64.426175 23.554900 14.129660
CG 73.982220 25.867299 21.464864
CG 63.944907 4.210367 27.740998
CG 60.032231 28.575293 124.902701
CG 72.523040 1.674515 24.208676
CG 64.054612 10.824111 34.125344
CG 63.788912 124.795903 31.255785
CG 72.211757 120.726147 59.766307
CG 72.025362 13.785090 29.469493
CG 54.626230 10.824706 43.183970
CG 79.541820 15.339084 24.949781
CG 53.615433 9.399046 20.707197
CG 76.946144 23.474178 20.012386
CG 61.147887 4.220708 25.572754
CG 71.629374 12.585208 7.584127
CG 59.484824 124.494318 3.492864
CG 71.900348 118.830896 124.497635
CG 59.215037 124.975107 1.751105
CG 62.381994 13.260429 121.986745
CG 78.293927 36.336081 117.546166
CG 61.689169 19.372040 6.345999
CG 72.739725 32.122342 8.002612
CG 57.782973 124.617840 10.285927
CG 81.049144 13.802003 11.465090
CG 65.562605 118.814713 21.076072
CG 69.925652 3.368810 16.117866
CG 65.261215 118.993308 10.307385
50
frame
CG 57.448900 34.300620 39.008162
CG 72.819953 28.610061 27.576283
CG 68.036528 35.994377 23.860737
CG 65.400145 19.157275 19.137018
CG 79.217496 12.188750 23.131753
CG 75.708649 10.681542 7.202734
CG 65.158705 6.022975 22.246198
CG 67.792770 124.757271 12.976767
CG 63.297819 9.236081 9.622974
CG 70.793052 13.058869 5.059897
CG 66.878857 6.454630 12.295113
CG 64.473457 113.622447 38.184126
CG 68.538860 1.152956 24.150503
CG 70.368635 120.242504 23.112201
CG 66.319841 0.393028 5.563180
CG 58.127108 3.066333 9.139662
CG 62.525562 118.330358 6.087912
CG 69.819491 5.227372 117.840835
CG 68.929672 5.075867 118.606329
CG 78.790198 8.649055 119.433458
CG 77.470774 18.411260 109.682124
CG 77.143542 28.047147 106.395340
CG 77.980100 18.484248 0.763112
CG 71.676053 25.468396 119.691467
CG 53.589078 22.719602 117.248091
CG 62.893455 35.586478 108.106540
CG 53.381389 13.571304 10.570606
CG 49.412180 21.193026 17.432329
CG 68.274269 3.252918 35.283619
CG 72.521985 123.130597 72.563127
CG 72.091837 4.513653 53.949661
CG 75.334018 123.519147 58.339213
CG 73.637698 11.919425 36.748448
CG 58.169286 22.655829 21.242679
CG 68.921221 20.197193 24.214031
CG 63.342101 4.979975 17.529636
CG 74.236656 13.424887 2.555286
CG 64.354072 119.084231 12.529057
CG 72.718164 0.204903 14.038297
CG 64.102897 11.462597 11.878583
CG 63.265873 15.020580 13.958974
CG 67.917811 11.354310 17.237607
CG 54.178175 4.006821 19.706857
CG 64.276887 18.256253 8.824161
CG 69.935136 9.055600 7.730874
CG 77.323871 20.249795 16.000806
CG 61.356774 6.919414 18.034316
CG 76.510908 9.506044 7.409530
CG 69.961345 123.757332 1.776331
CG 77.299079 10.375699 122.543282
50
frame
CG 65.932408 20.844637 48.521770
CG 58.784774 22.807251 52.423261
CG 67.814930 21.960350 45.953003
CG 74.383391 32.347258 24.315707
CG 63.986841 33.332006 23.185852
CG 71.833824 20.458464 10.517258
CG 75.191303 23.545065 6.060694
CG 77.904405 11.505923 9.110980
CG 71.493218 5.596523 15.371686
CG 66.514839 114.430339 24.840530
CG 70.729603 1.209223 9.199294
CG 71.788777 5.284023 124.057867
CG 63.291851 123.852777 7.463769
CG 63.303966 118.459433 22.006361
CG 59.249960 124.334395 13.690219
CG 70.639210 123.013713 9.845901
CG 70.277455 13.569376 114.285385
CG 61.849489 12.775719 121.811357
CG 70.969794 10.674595 119.075552
CG 72.318271 10.486518 111.376829
CG 69.215261 119.359786 2.449921
CG 74.959195 0.239947 114.364926
CG 59.017564 1.757783 97.089959
CG 68.509422 28.031528 86.651600
CG 66.540112 18.464051 105.761201
CG 52.796025 24.882448 124.033601
CG 66.334951 11.384361 23.504749
CG 67.014466 19.825369 32.124341
CG 57.925225 14.928751 36.957108
CG 61.796566 23.621074 22.037693
CG 66.444190 17.180667 23.074600
CG 60.186582 13.650707 48.502300
CG 79.670001 9.202618 38.583148
CG 69.543337 114.859042 52.538992
CG 83.335301 6.764048 20.960290
CG 58.083864 3.333196 12.739975
CG 68.081883 5.083580 19.263704
CG 66.320185 14.749779 17.915114
CG 69.437779 25.126827 15.942718
CG 63.297830 12.723853 30.425112
CG 71.108021 6.502395 29.575750
CG 59.977636 10.287579 26.000173
CG 64.287310 122.245097 26.344917
CG 75.697954 124.360307 28.796246
CG 51.691747 116.830791 28.670033
CG 71.130915 14.029352 6.148984
CG 71.785089 5.983558 121.063477
CG 75.864058 26.365791 119.302914
CG 77.669285 22.577514 123.119555
CG 77.742276 11.711652 1.163453
50
frame
CG 68.648487 12.701374 56.370729
CG 69.470145 22.010030 45.490795
CG 62.763181 20.220589 41.052617
CG 61.281253 22.964714 50.186981
CG 69.973701 27.686010 23.692956
CG 70.664472 38.307487 33.068625
CG 73.426167 24.006222 17.695775
CG 68.529002 19.970189 20.470823
CG 82.062387 7.913107 9.970806
CG 78.714143 12.340819 123.428822
CG 68.678226 118.761327 13.943304
CG 63.027225 121.834192 6.930617
CG 66.683166 122.826116 1.941643
CG 66.286329 12.831999 103.097331
CG 72.567554 6.850577 123.163486
CG 65.468145 11.038049 123.437115
CG 65.932578 10.241468 11.462035
CG 76.946619 2.845585 1.356264
CG 67.564469 4.865986 120.863904
CG 55.870205 123.080202 122.970980
CG 58.808470 5.879627 96.493279
CG 53.129974 0.721519 99.084612
CG 66.382666 8.248712 105.550959
CG 53.012620 108.503736 4.188329
CG 69.471970 2.966576 2.156359
CG 79.006459 122.547521 17.023893
CG 67.327019 31.576637 123.832675
CG 65.958715 17.537577 5.618485
CG 65.439721 34.118969 5.242621
CG 56.968742 27.464032 7.257473
CG 59.035014 20.899266 29.956700
CG 68.638906 18.103937 124.052846
CG 58.204348 4.453605 22.657816
CG 77.589124 7.011684 21.458874
CG 59.354250 111.368616 43.695247
CG 88.873629 7.037244 50.897283
CG 66.966269 13.793574 37.593204
CG 66.529281 24.031014 30.850384
CG 58.299342 6.834933 39.243345
CG 70.601771 13.589585 27.167316
CG 63.098242 9.436776 30.852667
CG 73.460117 119.018202 40.073715
CG 74.850233 6.188434 34.835818
CG 54.595932 120.750270 24.734458
CG 82.906041 11.281035 9.013436
CG 61.963260 115.176922 11.775526
CG 75.248163 20.668669 7.716773
CG 68.713901 5.030558 3.167827
CG 79.204851 22.626512 121.191075
CG 75.525850 36.389255 120.241225
50
frame
CG 66.440439 23.995139 37.305481
CG 69.931744 10.581348 48.826872
CG 71.801326 22.192644 42.510988
CG 68.133653 22.516084 38.578180
CG 69.262642 15.354821 53.300528
CG 63.499155 13.329299 43.669355
CG 70.122454 19.481699 40.009530
CG 77.024215 28.502106 18.591774
CG 64.186048 22.701168 15.160012
CG 67.558580 18.077855 10.164436
CG 76.681709 17.303097 116.967491
CG 75.906924 11.450782 114.993882
CG 74.430208 11.639043 115.871699
CG 70.848419 6.027205 124.789986
CG 69.554745 13.535108 110.493079
CG 73.069260 14.101210 107.470160
CG 70.829892 121.026132 120.325406
CG 55.830395 1.591735 123.572196
CG 53.415078 124.535499 116.999525
CG 62.705561 1.229856 105.947523
CG 56.578726 7.655153 112.955059
CG 47.721996 120.028808 5.836005
CG 57.925546 115.402135 14.455937
CG 73.341678 118.289140 16.711956
CG 62.084887 0.972743 10.638866
CG 63.794352 1.313659 119.719601
CG 69.819026 1.831109 120.071629
CG 68.044728 21.538463 112.431634
CG 68.115540 21.497900 113.166106
CG 73.765762 15.180275 122.865627
CG 62.731585 21.451113 108.545749
CG 63.360136 13.550193 5.727588
CG 57.323878 10.843531 15.793880
CG 64.174086 24.051667 10.071390
CG 65.797497 28.277505 31.763032
CG 62.064684 15.269633 38.174455
CG 67.718220 124.787666 59.906654
CG 78.943738 117.575220 64.949191
CG 73.809420 5.725105 46.959060
CG 66.512418 1.372014 45.979504
CG 69.109498 2.189318 42.160814
CG 66.476095 10.889603 22.807990
CG 69.386679 8.110626 15.984525
CG 80.151979 6.476469 17.443882
CG 75.581730 12.461522 18.657862
CG 73.943290 13.484531 18.506293
CG 73.738440 5.845282 13.140196
CG 73.445542 16.690416 11.327623
CG 65.533239 23.722699 7.009786
CG 71.495497 15.895709 123.909833
50
frame
CG 73.010654 17.368408 36.637688
CG 66.128525 30.066901 28.951936
CG 70.326133 13.540527 48.278811
CG 76.048701 4.063329 46.842365
CG 67.884348 14.327972 47.467784
CG 76.449315 11.526354 32.530094
CG 62.286311 16.343640 40.270570
CG 58.417087 8.700447 38.198573
CG 68.792747 29.237504 21.486300
CG 72.609385 27.696497 9.447502
CG 69.062772 37.939971 123.355753
CG 76.881888 32.088236 122.684221
CG 77.967543 28.570323 107.748710
CG 81.561284 15.078135 114.780273
CG 72.206770 1.590888 116.683387
CG 61.897192 115.891134 124.788625
CG 55.316961 10.465403 89.458304
CG 59.547293 7.194310 89.498956
CG 61.145350 0.739767 111.134417
CG 47.491171 0.497669 9.070310
CG 54.381956 104.263930 36.414651
CG 82.765483 123.316968 22.111710
CG 55.924925 124.106091 16.081512
CG 53.117188 16.201258 119.344657
CG 62.086409 116.128751 1.413465
CG 59.803290 14.720175 118.281709
CG 62.743076 120.276380 121.680411
CG 70.735345 118.675339 113.700200
CG 69.818001 112.769360 106.642354
CG 67.677125 9.792255 102.241113
CG 73.426120 7.781414 111.200061
CG 63.202773 23.324701 5.444323
CG 75.805081 45.452251 115.972743
CG 46.969458 19.277663 32.154874
CG 66.813462 22.564442 21.028707
CG 53.984657 11.003237 29.685202
CG 73.608666 16.988096 35.890659
CG 59.618683 0.227006 47.014400
CG 77.764448 116.918554 63.198532
CG 76.323424 118.379089 57.795071
CG 78.693985 4.157258 31.232226
CG 74.173810 11.658642 27.307978
CG 72.647354 9.477668 25.373064
CG 81.673971 28.242409 17.482420
CG 62.407898 3.887748 21.814522
CG 88.751986 30.427411 14.741081
CG 68.446633 18.827258 18.847178
CG 73.145540 22.610012 13.948015
CG 69.981209 123.290659 16.264558
CG 62.198952 3.877597 24.597850
50
frame
CG 68.182956 22.203225 37.629078
CG 74.787688 8.318511 46.188530
CG 71.374311 17.191626 36.217337
CG 67.769265 22.303793 35.800355
CG 70.825116 11.902489 38.928514
CG 63.350923 12.034573 45.381498
CG 70.836092 16.762202 31.690406
CG 74.413259 26.169685 20.584187
CG 65.953691 20.668722 20.130420
CG 66.789564 24.980928 16.020482
CG 75.068255 23.650114 6.149277
CG 74.068047 23.155868 121.471620
CG 72.300551 17.175802 124.967759
CG 67.158071 14.091244 117.941520
CG 67.494137 16.959383 104.504421
CG 69.534093 15.948111 96.442513
CG 67.175615 122.606289 120.790076
CG 56.523238 121.269357 4.534230
CG 54.724584 122.277072 0.236558
CG 69.983574 122.260668 121.531156
CG 62.917623 8.537293 117.995984
CG 43.783580 0.489831 5.607053
CG 63.295984 120.293339 11.560651
CG 68.933982 119.420127 13.925907
CG 59.453473 8.060199 1.676373
CG 63.043496 119.005459 121.237120
CG 66.035410 124.036524 113.908075
CG 62.976311 5.497652 112.505987
CG 67.085987 9.259299 116.120311
CG 69.416599 4.229841 121.759313
CG 66.476118 17.832334 117.911210
CG 65.723861 16.088650 121.441387
CG 59.496750 7.408253 15.221986
CG 70.950454 23.972264 5.984541
CG 63.297791 22.991615 21.151636
CG 65.605718 15.707587 35.257279
CG 62.533450 3.166726 42.357129
CG 73.581920 5.933355 43.017396
CG 69.114801 9.932356 32.318585
CG 70.913034 7.200955 33.960134
CG 73.302350 2.657343 46.133088
CG 77.621573 6.478683 37.126364
CG 75.513450 11.923983 26.288317
CG 73.010746 9.914907 24.000963
CG 81.043056 25.350418 18.988434
CG 66.440542 13.269656 19.407280
CG 73.859346 10.473060 17.019855
CG 71.287034 8.622070 20.797604
CG 66.939452 17.541256 21.369459
CG 71.755417 9.326340 15.030468
50
frame
CG 73.890380 6.280562 47.362204
CG 68.419446 17.821835 39.926093
CG 68.432906 18.651733 33.457691
CG 65.296361 15.283720 39.479854
CG 69.423055 23.687417 23.735591
CG 70.332764 33.193054 19.535864
CG 73.232665 21.269376 20.231581
CG 70.890614 23.040353 22.418200
CG 78.202446 15.844216 15.392106
CG 75.949106 16.185883 10.015678
CG 66.675220 2.948942 19.112561
CG 59.621318 5.063486 13.732005
CG 62.373563 12.103169 0.530632
CG 62.557968 22.277671 108.497210
CG 66.019865 14.746567 1.340059
CG 63.198289 14.886338 4.851502
CG 66.802605 8.335889 11.864137
CG 78.245620 5.853378 4.422444
CG 71.652171 4.716038 2.805558
CG 53.018584 1.102552 122.565573
CG 59.756838 7.297505 104.893581
CG 63.239989 123.505375 108.894109
CG 61.857630 11.929722 105.982161
CG 54.652957 111.848579 1.274427
CG 68.809372 119.778035 1.866844
CG 70.584480 118.534054 6.338086
CG 62.970889 16.493726 123.888679
CG 63.573475 9.166778 3.758911
CG 61.020643 23.656449 3.128587
CG 59.668957 17.377862 6.870015
CG 56.513165 6.188006 19.172952
CG 71.465912 2.489647 5.028538
CG 61.657023 0.247236 14.943468
CG 76.351368 4.634874 8.890976
CG 63.544766 117.575718 30.264520
CG 83.227647 14.527993 18.799026
CG 66.615451 18.918544 18.012451
CG 70.693856 22.195335 18.239320
CG 62.791802 15.433808 24.501828
CG 71.203691 19.210533 23.725479
CG 67.832570 17.981556 23.764319
CG 69.353467 8.337219 32.371430
CG 78.895217 13.017860 39.714040
CG 68.203383 124.275599 36.894331
CG 77.290626 8.151270 25.653008
CG 64.559692 120.310186 28.039803
CG 74.064677 17.344808 23.670267
CG 67.122499 6.672944 20.061207
CG 76.784972 16.869887 15.304413
CG 75.180376 24.287746 17.996509
50
frame
CG 67.195326 16.230919 35.223379
CG 66.975141 13.241689 35.856980
CG 69.251549 13.125144 40.445565
CG 74.616496 27.528463 16.727418
CG 68.444977 29.890764 21.318430
CG 76.251797 19.115851 13.017337
CG 72.551998 29.700847 10.154323
CG 74.796326 13.944377 9.352528
CG 70.248478 11.347210 17.890398
CG 64.926208 122.687424 22.346864
CG 63.919952 11.253152 4.469892
CG 66.901154 11.126820 2.610243
CG 58.410353 5.233540 14.491000
CG 59.970714 124.646809 35.870460
CG 60.132854 7.560142 24.548224
CG 71.174164 7.460943 24.316429
CG 70.283345 24.019573 1.229754
CG 58.496202 20.772463 123.888349
CG 68.600662 16.040328 115.814789
CG 76.548343 13.993407 112.636558
CG 66.192183 120.901373 1.453927
CG 69.605822 1.883914 110.817180
CG 61.021248 114.926673 106.794877
CG 69.840597 16.352833 91.889026
CG 61.490566 6.725787 110.090715
CG 55.150057 19.119503 0.727314
CG 65.034649 3.748425 21.385908
CG 64.431236 16.264926 22.570830
CG 56.829975 2.039681 26.284798
CG 60.487871 9.766119 18.553239
CG 66.551713 6.572022 14.289644
CG 57.241997 2.922356 33.495149
CG 76.882179 0.208433 19.434443
CG 64.686045 110.282515 32.027529
CG 83.096872 8.117135 123.795359
CG 62.848882 1.020915 0.606386
CG 78.767522 11.690621 6.292127
CG 68.548152 20.675955 3.039510
CG 75.454792 29.788333 8.633717
CG 63.573334 22.148826 17.567032
CG 69.561148 21.181753 18.472475
CG 66.048992 19.962678 22.170331
CG 60.089828 2.841123 23.240113
CG 72.740155 9.250909 32.442645
CG 58.980750 114.631233 47.349400
CG 82.123111 11.715073 33.843695
CG 69.194641 124.215502 27.711175
CG 77.999768 22.399078 23.328917
CG 75.309060 16.600343 22.421610
CG 74.243152 14.677133 20.281840
50
frame
CG 63.085849 21.974056 24.730996
CG 72.483298 24.354742 18.264631
CG 70.709707 29.572734 10.873380
CG 72.377192 16.936762 21.386472
CG 78.770855 12.439677 18.369351
CG 71.804250 16.537704 14.759296
CG 70.048553 6.936161 16.009921
CG 67.057146 7.080693 13.398395
CG 59.378507 14.004901 1.757061
CG 63.821164 19.156362 123.514682
CG 64.678560 6.864691 19.187098
CG 61.895313 121.688818 40.055629
CG 67.897587 3.790923 35.647140
CG 70.331658 2.456778 30.703280
CG 66.575108 8.427579 23.268714
CG 55.073384 13.989764 15.837909
CG 59.480080 7.666620 13.395131
CG 72.106920 15.116295 4.822025
CG 64.244412 16.810159 0.071476
CG 70.469893 12.934410 118.806028
CG 77.437045 13.477317 106.686959
CG 72.898270 17.402913 107.891870
CG 74.606683 10.863992 121.846908
CG 64.894016 14.640582 123.878145
CG 58.794249 16.936049 120.701666
CG 65.578437 19.456597 115.476672
CG 54.359238 8.327872 4.306005
CG 52.316193 4.434928 17.893421
CG 70.435842 124.120565 28.752365
CG 65.848172 118.448885 44.919996
CG 68.580190 123.062916 36.635498
CG 69.326879 122.321995 27.173833
CG 68.925387 5.772835 16.628344
CG 64.252015 15.030571 5.147300
CG 70.176733 7.057373 9.800633
CG 69.418923 3.077311 12.154470
CG 73.474540 10.556960 116.970949
CG 70.677132 4.723505 2.615094
CG 72.527507 11.888609 0.319563
CG 72.445475 21.609966 124.610295
CG 63.587426 15.087265 11.927806
CG 65.226452 14.216689 15.820548
CG 60.780958 12.864861 24.692970
CG 64.746174 15.728453 21.768876
CG 71.253662 17.424117 17.742162
CG 68.189997 16.178260 31.812388
CG 73.809678 8.367458 42.087728
CG 79.650939 4.489195 36.595075
CG 70.421030 4.468002 32.821598
CG 76.793658 10.775167 28.682075
50
frame
CG 77.950552 35.694573 120.154048
CG 66.522155 28.841618 6.179896
CG 73.569733 16.645003 7.876487
CG 70.678760 14.500083 12.083136
CG 67.754272 8.680768 7.439883
CG 65.666187 2.201251 20.254719
CG 64.931566 1.341053 10.123953
CG 58.694850 18.829857 5.591405
CG 68.072381 3.684927 19.310980
CG 62.941966 4.080689 33.103549
CG 62.979522 5.599147 34.149699
CG 68.908757 14.810830 22.398210
CG 70.063434 6.888213 27.905197
CG 58.939608 15.209815 15.280254
CG 65.531427 5.153036 22.695864
CG 72.579800 5.716941 13.448396
CG 64.702910 5.089886 20.463933
CG 61.998031 2.694020 12.208531
CG 73.313935 5.837996 5.536545
CG 66.346234 17.616506 124.945907
CG 68.646940 33.517598 122.439352
CG 69.236959 22.412881 8.989839
CG 71.290305 44.484534 118.628210
CG 67.619476 16.315161 10.308413
CG 71.776366 15.384727 13.902280
CG 59.576132 119.664718 20.974966
CG 66.182789 14.162680 3.522657
CG 72.220304 120.638088 11.035241
CG 59.270105 5.113286 16.285853
CG 66.912829 122.199903 16.914015
CG 68.051723 121.216506 31.450092
CG 75.392469 7.795049 14.499909
CG 58.756991 5.475711 25.166569
CG 78.161129 12.387016 9.398951
CG 55.115008 7.826518 14.117821
CG 76.082426 21.896301 124.813201
CG 60.194906 2.905723 14.929010
CG 74.264205 7.479503 2.257584
CG 61.682038 120.685624 124.375107
CG 68.947188 118.526163 4.117271
CG 68.548017 6.833130 1.643429
CG 67.587192 14.386530 3.522909
CG 78.122252 31.465431 4.194688
CG 62.133045 19.503859 15.047779
CG 73.184582 31.879680 21.365509
CG 63.488207 6.546260 23.182201
CG 73.748594 24.584496 20.481283
CG 61.646796 3.751987 38.339159
CG 80.548468 4.294654 46.170739
CG 73.188814 119.101106 49.995201
50
frame
CG 74.136388 22.976091 116.597210
CG 81.430657 21.860208 111.182997
CG 69.294962 16.774166 122.981827
CG 63.417754 12.651580 121.593753
CG 57.816290 9.913931 7.390822
CG 60.054999 12.703872 121.265255
CG 61.434328 13.951572 15.873065
CG 68.016796 114.034676 39.478358
CG 63.125623 2.570885 40.875121
CG 67.537264 6.662480 31.319494
CG 71.401745 11.342069 21.330201
CG 62.107425 14.422339 15.495193
CG 57.380326 15.873750 9.817082
CG 73.847564 8.651973 17.316675
CG 67.538081 9.370895 13.748135
CG 65.695075 1.604257 21.371467
CG 78.372155 5.272168 7.197883
CG 70.923857 10.334013 12.676031
CG 62.721401 20.043428 17.467181
CG 67.053136 19.773745 23.694144
CG 62.690513 21.234344 27.709766
CG 63.877055 32.897486 16.966913
CG 61.089692 13.674232 27.795624
CG 69.984976 23.385830 18.491517
CG 71.682959 20.883371 11.906740
CG 79.144559 14.527382 20.498781
CG 77.420545 118.446026 34.162458
CG 69.734536 4.828234 17.271487
CG 71.503571 1.619601 3.178801
CG 72.324314 14.534694 114.702682
CG 60.861806 15.334137 114.008233
CG 60.178527 6.981909 13.595739
CG 74.575823 6.402120 12.234167
CG 63.069103 3.359941 25.119826
CG 73.947978 12.441416 15.335474
CG 59.504121 1.303469 14.300615
CG 63.648856 5.726054 10.536831
CG 57.748654 2.486535 7.951083
CG 68.468667 3.620382 15.279655
CG 64.030198 4.265172 4.523152
CG 74.928141 6.363984 121.502422
CG 73.215457 8.742389 0.881952
CG 68.083653 9.376709 1.620622
CG 80.508620 22.049118 2.852798
CG 65.703174 14.392661 10.560381
CG 71.540944 28.613234 18.045955
CG 64.660461 7.320571 30.670997
CG 72.420664 12.659660 31.839948
CG 64.745843 6.243780 38.908449
CG 69.123096 2.048494 52.094866
50
frame
CG 73.272628 2.478022 112.790434
CG 65.571122 5.557869 114.409914
CG 63.701923 16.757528 106.703653
CG 67.607994 19.569287 107.980800
CG 66.797993 19.467853 122.624036
CG 63.337582 5.868705 24.185677
CG 60.819133 1.042351 33.986724
CG 64.371176 13.617169 19.774699
CG 66.551328 13.639016 15.847557
CG 66.826475 5.449511 18.920406
CG 57.831672 10.211181 17.780278
CG 70.364139 1.240521 23.673922
CG 74.815955 9.421627 13.752975
CG 63.545105 5.524375 14.049763
CG 71.799370 11.712071 4.144354
CG 73.852767 18.910897 6.589016
CG 60.766366 21.137615 19.557394
CG 71.877580 22.498327 27.730908
CG 70.038805 19.050662 30.759071
CG 64.222131 22.140392 32.805508
CG 61.260699 7.250255 39.882408
CG 63.618627 8.536549 41.364016
CG 68.716707 8.498424 39.249218
CG 70.440110 19.315187 31.869340
CG 69.692330 0.087830 45.067199
CG 77.758251 24.495911 17.191384
CG 75.610033 21.619928 4.071863
CG 79.373572 23.766645 3.389442
CG 79.726953 13.224094 6.127810
CG 62.188120 9.255709 14.254185
CG 77.503918 10.880760 120.249130
CG 66.411688 12.568280 114.775682
CG 65.112389 16.776923 114.685612
CG 54.773235 3.884923 6.274362
CG 68.853781 120.614617 13.829682
CG 57.238604 117.274059 30.357939
CG 72.313452 7.245148 13.876314
CG 60.389227 2.282555 20.735082
CG 67.339948 15.093087 3.585686
CG 70.548992 18.763709 6.658059
CG 63.751382 7.976494 16.654905
CG 73.556662 8.160607 3.765693
CG 70.373944 121.885538 5.280166
CG 70.177338 5.172227 6.345876
CG 71.771446 123.168797 8.914566
CG 78.102203 10.648468 15.344261
CG 66.625264 8.957527 26.304331
CG 71.237316 17.909469 32.252899
CG 59.454421 11.138752 34.357938
CG 61.830483 24.803586 18.437689
50
frame
CG 54.732973 124.714588 105.589535
CG 59.192716 2.739666 108.680000
CG 70.796023 0.750642 117.560019
CG 64.940171 1.597143 17.046370
CG 68.466687 4.610693 10.071771
CG 71.768998 20.387366 4.607636
CG 73.257442 21.899923 117.474492
CG 60.609166 21.326497 3.979378
CG 59.764073 6.735039 9.767915
CG 62.393170 13.509054 9.823886
CG 74.196325 3.325427 13.685697
CG 67.024939 6.810730 9.452128
CG 68.834121 124.724467 18.947680
CG 73.999083 16.622691 8.493245
CG 66.800650 19.380331 24.642015
CG 65.235508 25.013617 21.075006
CG 71.190104 26.691736 27.924883
CG 60.821996 25.501433 27.051255
CG 62.796613 13.716678 40.300401
CG 67.756181 3.318168 45.827994
CG 75.972912 14.810970 39.787783
CG 71.811764 0.672700 50.107979
CG 70.799623 7.386971 47.738677
CG 69.921091 120.126393 48.574754
CG 76.200153 26.349608 19.090065
CG 65.812994 12.241367 23.813621
CG 72.826733 29.658092 15.593434
CG 72.467246 21.123639 12.629672
CG 72.281997 33.827012 2.646367
CG 85.720125 21.417143 121.051613
CG 70.313793 12.765320 15.263039
CG 69.388461 8.767139 3.271462
CG 60.549607 120.265549 5.611712
CG 74.272557 6.443647 112.635150
CG 49.289517 7.596367 122.589155
CG 72.095291 14.620538 121.153966
CG 58.861274 122.718380 19.575640
CG 78.944916 14.967477 15.929812
CG 64.503795 7.113344 22.646510
CG 66.563956 2.431690 21.155841
CG 68.313151 11.890745 7.657376
CG 61.054191 5.659857 19.378910
CG 71.887321 8.664946 20.087813
CG 67.206510 112.222808 19.492889
CG 75.730437 2.724211 21.488536
CG 61.416779 109.716271 21.341689
CG 75.230273 11.894815 9.027622
CG 58.493840 12.681818 4.397385
CG 70.872633 34.324447 1.256732
CG 60.342456 23.091884 16.223317
50
frame
CG 56.158281 1.461244 118.049327
CG 58.994905 120.025722 5.063788
CG 53.832453 116.180912 15.186303
CG 67.790198 0.789985 120.564404
CG 72.146133 7.119118 120.160828
CG 65.858754 10.049737 112.549072
CG 63.285649 15.961618 118.087067
CG 74.634496 10.100783 116.489863
CG 76.234916 20.956430 115.996541
CG 67.627563 12.603999 122.350600
CG 65.318726 8.514773 4.101519
CG 68.880181 20.305695 4.160071
CG 65.007079 24.269989 12.960033
CG 66.691517 18.386484 29.675286
CG 68.252418 19.285647 31.160421
CG 64.025975 17.808516 39.457138
CG 64.121665 12.113277 38.302006
CG 67.706374 5.338414 43.534253
CG 72.604805 18.138784 35.420357
CG 71.958897 13.112857 40.831436
CG 69.025124 1.894500 53.241260
CG 77.237891 8.567237 42.027349
CG 78.765378 15.047059 28.522833
CG 72.500514 16.459821 28.333270
CG 59.476673 7.322573 38.660250
CG 109.243004 27.354377 63.033501
CG 69.250489 6.686727 25.956901
CG 32.639499 30.021179 112.453345
CG 77.436930 13.701697 13.208405
CG 68.837790 23.994598 11.070361
CG 65.762905 20.003764 124.773403
CG 80.380772 10.737986 8.240805
CG 72.321935 13.441790 9.415833
CG 66.758205 10.945808 8.079298
CG 75.247655 8.682723 0.143348
CG 72.222322 15.527081 112.749043
CG 63.117257 20.449530 119.727048
CG 60.802995 4.808454 1.967387
CG 69.818450 123.683748 20.623578
CG 66.427330 4.089080 23.851116
CG 68.567730 123.492009 33.519712
CG 68.842725 117.973046 31.321229
CG 62.740703 1.440620 26.888615
CG 64.626467 7.043868 31.759511
CG 60.621207 3.088685 20.103842
CG 63.973246 13.750137 5.178499
CG 62.234018 8.698715 1.585352
CG 67.034716 6.054319 0.889552
CG 64.554206 10.137120 120.907981
CG 72.123216 23.928798 110.886888
50
frame
CG 73.069749 102.845802 47.796786
CG 80.365414 103.826785 38.178221
CG 88.690602 96.580871 100.914189
CG 75.945211 16.741287 102.330710
CG 60.859691 4.284493 108.579599
CG 70.110804 119.135850 114.324852
CG 76.540910 123.129017 115.980910
CG 71.330396 8.751147 108.682530
CG 68.578456 11.778881 112.234113
CG 80.751780 19.853254 112.864775
CG 68.062821 42.705316 115.265161
CG 65.167070 22.798059 17.957757
CG 66.700425 27.146026 19.030490
CG 58.828826 21.807108 29.736704
CG 62.021016 15.102781 31.546464
CG 71.183268 1.485397 43.892962
CG 68.564294 6.680500 45.011767
CG 75.767245 10.965925 47.257986
CG 70.927974 121.659033 52.816187
CG 75.409211 11.564506 39.969268
CG 77.177161 20.766960 21.278209
CG 69.068348 25.591294 21.550167
CG 60.655750 5.575708 41.914686
CG 69.888733 18.435809 34.926587
CG 82.922185 5.299875 69.743594
CG 86.383930 28.819938 108.899955
CG 72.113477 12.509822 112.943801
CG 38.452748 78.210553 103.853085
CG 92.176237 7.566904 119.923013
CG 77.508521 0.768670 14.569399
CG 84.931226 13.981913 12.803526
CG 61.427844 28.640391 10.705646
CG 82.586157 32.163824 121.369958
CG 78.498407 21.263514 7.864312
CG 82.998272 25.082269 4.550679
CG 57.242844 1.821945 21.683168
CG 84.674104 5.520036 123.485809
CG 63.821435 5.988182 3.461874
CG 63.616574 13.161927 122.986101
CG 66.094739 120.245608 15.608044
CG 62.938601 114.592743 34.716171
CG 67.731468 7.284595 33.783612
CG 61.134479 118.992705 34.398716
CG 61.571791 15.916398 12.931292
CG 53.958904 13.018060 7.851168
CG 66.305506 22.614453 11.418659
CG 55.330439 5.883960 6.514286
CG 72.949735 22.392406 113.697269
CG 66.879012 124.648158 112.087688
CG 68.808544 115.950376 107.327923
50
frame
CG 83.935019 104.233222 5.828396
CG 75.115930 116.459770 2.900275
CG 66.242667 0.027473 25.233352
CG 74.604707 102.470686 10.330880
CG 83.909180 114.880570 112.902991
CG 72.827223 9.752112 106.762588
CG 65.952418 8.780259 108.527040
CG 74.026106 7.817009 115.658965
CG 74.811745 18.776012 116.213448
CG 64.303945 19.954513 124.897442
CG 69.922153 11.715881 7.959803
CG 69.530671 26.255144 3.612800
CG 64.385464 23.670507 15.098657
CG 69.707449 15.349169 26.440537
CG 68.732422 14.416597 34.562347
CG 64.779346 18.000766 35.961640
CG 69.767873 7.833725 41.612962
CG 69.806566 4.216993 41.838608
CG 74.785794 18.426261 32.113960
CG 71.393265 13.342026 35.021756
CG 66.367161 5.788622 47.102384
CG 72.462175 8.001331 43.815530
CG 81.083990 21.061015 43.367355
CG 76.703439 17.229961 71.265250
CG 65.057717 14.686177 75.222405
CG 58.435327 111.234706 68.738485
CG 78.424960 122.810562 93.255149
CG 96.138458 31.688929 123.265309
CG 63.800950 0.303638 124.368819
CG 64.166665 2.093078 117.014913
CG 74.453652 14.319464 123.224346
CG 87.574497 11.656098 6.153272
CG 74.545669 15.210099 14.487586
CG 68.804744 19.118376 9.200490
CG 72.775231 12.637287 5.431418
CG 82.480428 19.580388 122.214337
CG 63.209401 14.228546 9.627064
CG 69.259602 3.090012 13.303362
CG 70.940765 119.826276 20.840295
CG 64.891070 7.023771 18.033495
CG 64.987044 8.547309 12.941431
CG 60.947309 124.220593 16.531990
CG 62.034656 10.473211 16.655554
CG 62.579671 5.801445 24.635006
CG 64.502260 7.649245 19.149081
CG 60.516437 9.456166 1.791224
CG 67.631700 14.145165 120.856315
CG 61.459036 123.948621 124.483821
CG 65.714452 4.565272 118.143695
CG 68.233926 9.776978 114.621998
50
frame
CG 68.169772 12.135474 102.460453
CG 76.724307 109.674877 109.043690
CG 80.043488 115.345417 7.357046
CG 73.582788 117.161654 10.109495
CG 69.942490 2.387299 25.377400
CG 78.136692 116.096161 11.895391
CG 82.397734 9.577331 119.111294
CG 66.257705 20.237678 122.066204
CG 64.859723 9.089628 6.299241
CG 66.985258 10.054503 7.982006
CG 68.523324 5.230908 13.121867
CG 68.402827 6.174144 13.042612
CG 74.702291 1.670365 19.565203
CG 74.089077 19.994203 11.552450
CG 72.165244 18.510705 22.134462
CG 71.215003 17.306175 24.532481
CG 70.580168 26.227069 21.336704
CG 63.879990 24.121582 22.460627
CG 63.724669 12.617494 36.532171
CG 67.021314 4.508867 47.990467
CG 78.918592 15.971270 55.854002
CG 77.861058 7.428776 83.594994
CG 69.439763 6.505038 86.270959
CG 63.770616 110.097684 75.556875
CG 75.684685 6.015859 69.125939
CG 86.218914 23.428760 87.546962
CG 61.703945 11.046971 85.216559
CG 73.704428 21.716629 79.409148
CG 70.968737 16.129978 94.187872
CG 97.293459 36.560497 114.125649
CG 60.784129 1.500812 122.327040
CG 66.274768 120.353559 118.203009
CG 68.433590 119.928236 2.533019
CG 85.998708 5.237406 124.622917
CG 61.534668 8.010514 14.453774
CG 71.643518 15.000836 8.617715
CG 67.298672 5.222870 22.536430
CG 78.798993 17.584723 16.142339
CG 65.234038 14.179571 21.336919
CG 66.939311 7.019397 13.321527
CG 67.091706 12.860124 5.070059
CG 62.685023 12.590849 4.581433
CG 66.501346 14.774479 124.866140
CG 62.963011 123.810956 2.719174
CG 71.265594 5.941309 3.594446
CG 63.628895 112.417817 12.627079
CG 69.023986 124.391847 7.315220
CG 60.861189 3.549785 1.699788
CG 65.875258 19.993165 1.876788
CG 58.917871 14.159783 9.914790
50
frame
CG 73.159120 116.428293 113.023122
CG 67.145365 21.059891 118.087222
CG 72.065864 5.324162 91.730305
CG 79.563488 11.502962 116.553597
CG 77.253070 1.115531 4.061521
CG 68.713797 10.093209 26.906995
CG 64.530808 123.129381 49.065988
CG 75.453779 114.846441 30.596413
CG 73.692530 0.459676 15.891831
CG 73.135112 124.291093 14.001624
CG 68.222715 6.526403 12.669900
CG 73.736066 122.549342 21.868021
CG 73.510631 9.365273 12.389684
CG 70.935059 1.589036 17.283544
CG 74.941214 15.408773 2.342737
CG 74.240230 25.226867 1.923023
CG 64.179592 19.933261 17.424556
CG 72.345164 19.620601 33.132893
CG 72.380934 19.873668 47.762210
CG 73.021540 24.141115 68.405994
CG 64.152226 3.967085 79.970657
CG 60.273294 119.804817 71.472881
CG 71.952237 115.431700 84.225312
CG 86.286647 24.337729 93.691527
CG 71.977702 2.161234 101.832412
CG 68.301656 14.761139 83.653696
CG 84.367289 35.470490 74.207704
CG 66.559199 9.144506 80.434295
CG 80.181196 28.055234 82.166752
CG 52.588328 120.254992 81.961147
CG 85.185150 11.606205 92.620058
CG 77.767405 22.361601 112.793345
CG 65.597927 3.031202 112.545261
CG 52.752552 112.725812 4.217168
CG 79.505287 119.338922 7.518356
CG 66.572795 118.695360 29.711801
CG 77.113405 15.557755 14.140715
CG 58.429237 13.073471 15.989417
CG 71.106237 24.405761 0.561559
CG 73.043954 25.708423 3.680001
CG 66.200791 14.564042 9.961028
CG 73.596229 13.101041 122.131229
CG 69.682931 122.102754 122.032995
CG 71.408772 7.945543 113.717695
CG 62.359444 118.121315 116.990522
CG 72.277264 8.888794 123.690275
CG 60.633062 1.167611 11.979265
CG 69.331198 12.980939 21.014091
CG 56.458336 0.741933 25.186376
CG 60.834512 14.558649 14.001105
50
frame
CG 71.494859 20.448368 112.626273
CG 76.728215 5.259243 109.069728
CG 69.179321 17.807729 4.631233
CG 61.528545 22.347318 0.263470
CG 67.534132 11.478889 120.471622
CG 74.659446 3.745577 9.138055
CG 72.770063 119.396937 15.840506
CG 71.651390 118.649726 44.795553
CG 72.745582 114.429906 53.885844
CG 77.366915 111.690782 42.095053
CG 81.905894 118.797891 23.263183
CG 73.982878 7.484247 8.559741
CG 68.275382 9.721053 5.291106
CG 74.261425 10.695917 4.739869
CG 66.499381 6.974539 14.809454
CG 68.255176 2.220760 27.998431
CG 82.289357 11.071470 32.338142
CG 77.213891 18.749472 48.878191
CG 68.926389 15.196690 60.384197
CG 64.204449 3.223865 57.633364
CG 67.621531 4.874428 69.458288
CG 80.626832 30.183823 83.541840
CG 69.973164 19.781165 85.974036
CG 60.891682 7.798219 83.898355
CG 79.027152 29.960181 82.383532
CG 73.176061 10.441687 88.663493
CG 74.159274 0.256498 99.452313
CG 70.426540 12.802001 88.199623
CG 73.339145 5.365240 76.712775
CG 70.805206 13.208684 79.211639
CG 65.722018 20.786681 78.205486
CG 53.013350 113.420787 86.108647
CG 83.572171 11.114212 106.875214
CG 74.022487 16.588453 3.623832
CG 63.427640 4.794151 123.403281
CG 59.452777 124.543641 118.917950
CG 65.324142 2.528208 122.700745
CG 73.788771 7.977014 5.414441
CG 71.882900 10.151241 8.670600
CG 64.731102 15.020883 0.391439
CG 78.230161 15.262300 112.711851
CG 74.313312 9.484999 120.273809
CG 69.609972 8.264712 121.673111
CG 73.916151 8.050133 124.664003
CG 69.676637 10.046977 4.212258
CG 64.288306 17.533311 124.868883
CG 63.119157 10.431476 6.932168
CG 60.425819 5.407447 12.753708
CG 64.418636 5.939096 20.007963
CG 64.267548 120.143008 36.601530
50
frame
CG 72.419682 29.789001 124.040461
CG 64.525553 26.282640 3.192003
CG 67.813420 21.672208 10.508808
CG 72.934941 121.037524 4.595932
CG 64.435603 12.219548 22.104362
CG 63.769118 2.016160 11.717812
CG 76.430276 7.117538 6.884697
CG 75.540574 0.843802 11.902432
CG 80.215655 115.766926 20.010485
CG 73.505687 2.697310 35.883511
CG 71.108011 119.990655 44.390316
CG 75.820946 121.885127 29.373602
CG 79.040319 116.970256 27.585959
CG 68.299130 6.862975 23.136132
CG 77.770001 4.084120 38.730443
CG 78.748864 5.997135 50.085924
CG 67.114583 0.598687 60.623006
CG 62.676842 111.945029 52.572201
CG 76.808873 121.966449 51.459635
CG 83.062098 21.776935 66.650346
CG 79.166631 37.137606 63.470650
CG 62.825373 11.674085 68.593473
CG 72.755018 40.658994 67.508964
CG 73.776236 23.719613 77.326753
CG 63.274137 6.981215 81.192513
CG 71.210850 11.589038 90.059942
CG 61.362790 3.581830 80.991411
CG 80.287928 8.139340 87.706439
CG 56.150050 120.813937 98.626239
CG 77.735300 11.536066 93.245696
CG 62.221332 116.294519 97.197258
CG 80.395825 23.156470 94.830595
CG 50.263272 11.922764 90.829070
CG 67.671050 4.137803 69.809215
CG 65.614054 19.289142 97.633311
CG 82.402996 30.051439 101.445388
CG 59.852370 1.550858 116.884305
CG 67.819110 0.803102 103.073316
CG 68.668680 119.011448 110.227532
CG 81.260106 116.039094 118.999146
CG 69.527565 2.698300 0.463389
CG 66.719027 11.195037 124.520390
CG 78.890623 28.017101 122.682473
CG 64.238315 18.001952 8.264244
CG 71.257896 27.911834 8.342751
CG 63.284131 0.623147 18.349172
CG 71.376881 14.811598 11.553036
CG 62.472104 1.123835 14.812560
CG 69.514687 2.868950 19.044149
CG 64.687827 124.690894 15.088381
50
frame
CG 60.024683 22.731920 25.557303
CG 69.211297 26.034673 24.938762
CG 68.179819 12.087395 8.685875
CG 66.326027 22.340906 24.259145
CG 77.337802 3.112583 11.814121
CG 76.805182 5.195324 13.487755
CG 66.047007 4.406848 26.203329
CG 70.907432 8.937837 3.265293
CG 70.131140 19.956853 122.671437
CG 75.796270 2.535122 124.995672
CG 75.652981 124.080711 17.806108
CG 71.101643 118.957952 56.530811
CG 75.714114 122.802408 72.157807
CG 85.109990 108.409296 82.510746
CG 75.891283 114.481198 68.925664
CG 64.837221 115.959338 52.775280
CG 72.380241 115.465242 53.521356
CG 86.880172 13.898918 67.501253
CG 73.511352 19.531431 67.373757
CG 65.551153 4.842685 57.367949
CG 74.936588 13.878640 56.549898
CG 81.106871 31.524894 54.427217
CG 70.429412 5.160727 64.091693
CG 70.601998 21.983638 68.473448
CG 64.890198 16.950743 72.610396
CG 65.753537 14.093064 69.730419
CG 65.571712 14.635569 84.318713
CG 55.468877 122.565694 94.972084
CG 75.095408 9.185327 97.410112
CG 63.212473 121.605917 106.519592
CG 66.610893 9.255695 104.028716
CG 67.706343 11.391308 85.696414
CG 67.717634 7.550239 77.831537
CG 68.217794 31.114794 85.444808
CG 65.472995 11.642517 69.151765
CG 59.029743 120.285425 69.382431
CG 83.649765 20.404058 71.821952
CG 76.991537 7.162415 97.831197
CG 68.708023 123.957328 102.707355
CG 62.864651 2.507512 104.990762
CG 69.961673 1.607746 120.386110
CG 76.220800 7.707515 4.392173
CG 60.278434 6.957665 16.433788
CG 68.729763 18.706719 11.731704
CG 68.021006 10.965864 12.506332
CG 74.159266 21.495729 16.157989
CG 67.383016 4.050164 23.924453
CG 76.830277 7.678537 19.081152
CG 65.502125 3.086111 5.920461
CG 70.202716 11.670845 122.345734
50
frame
CG 66.118127 10.465088 37.507348
CG 61.455783 8.341419 35.802834
CG 69.395285 16.323251 40.142363
CG 74.483264 21.856314 23.073274
CG 68.225205 16.672211 16.820061
CG 71.151755 24.527662 18.222504
CG 75.448949 16.161278 119.360715
CG 72.188654 11.544369 12.977823
CG 65.549461 3.459159 23.679688
CG 67.441284 7.295355 28.974493
CG 74.626093 14.607682 33.179682
CG 83.908106 122.696240 44.177924
CG 73.452651 114.630552 59.637657
CG 66.327702 111.626556 76.653247
CG 71.436851 108.944040 86.779819
CG 91.902782 115.919948 99.455436
CG 85.154577 12.456855 77.761601
CG 64.595075 6.689415 57.435861
CG 72.919508 5.168686 57.324514
CG 83.439126 22.051057 58.215354
CG 65.876441 118.496688 64.840956
CG 69.804727 0.338661 62.340046
CG 71.467454 6.772696 58.584745
CG 67.966366 7.209069 51.450315
CG 75.030885 18.166139 63.577119
CG 58.026004 10.525895 78.434622
CG 71.580787 12.398659 87.425305
CG 61.329348 17.059852 86.592125
CG 63.299275 15.482532 88.490757
CG 55.305316 10.254386 83.831712
CG 75.057880 22.417824 75.755010
CG 52.308026 124.367128 94.989218
CG 81.248141 17.322658 87.478355
CG 62.696452 118.374145 79.609807
CG 79.638879 7.880217 64.404733
CG 72.060230 15.987169 75.574437
CG 64.195113 123.737987 65.569008
CG 60.876948 4.922297 66.525692
CG 80.378572 26.913121 83.400736
CG 71.997056 21.447529 109.719101
CG 63.248278 9.697974 113.133648
CG 58.120355 3.710343 121.484964
CG 68.356305 118.042955 4.043771
CG 77.241786 123.646783 15.014132
CG 64.853432 120.094980 28.301895
CG 73.247827 11.600300 13.221877
CG 71.771152 11.505086 4.457499
CG 71.242973 23.146228 123.311588
CG 76.412544 19.468118 3.333871
CG 74.863548 9.126482 11.140584
50
frame
CG 70.422694 2.051437 46.890756
CG 73.515760 8.011092 39.757001
CG 66.008273 15.773186 38.549093
CG 64.507559 5.768299 30.734392
CG 69.098764 34.087039 29.074846
CG 67.814452 20.465867 14.087159
CG 68.249902 21.254042 29.518701
CG 67.584025 19.092545 37.044730
CG 81.551452 11.414657 35.283898
CG 78.324315 8.347448 57.295028
CG 66.134077 114.021966 67.808912
CG 59.163138 4.076187 49.794028
CG 74.109664 0.487072 48.927821
CG 87.015659 9.283733 53.859254
CG 86.178171 12.466504 68.808197
CG 63.709218 8.042812 71.685173
CG 69.887762 118.467036 91.729312
CG 89.059906 120.330462 92.449567
CG 79.023144 119.123349 73.903851
CG 64.106553 112.054576 67.751530
CG 76.848838 12.291115 56.477260
CG 66.484687 117.375534 59.071762
CG 68.274940 6.649422 61.736751
CG 66.167704 119.442884 77.514909
CG 64.434478 120.059502 72.034703
CG 77.716687 13.865110 70.117242
CG 59.396144 16.439747 63.979826
CG 71.379881 24.958939 67.209899
CG 57.596154 19.929706 65.751095
CG 69.822673 30.688598 69.946677
CG 54.927948 4.750725 79.637395
CG 77.522684 14.632094 67.310762
CG 60.689797 2.013612 70.578277
CG 76.017689 124.530052 74.955377
CG 65.014636 124.728806 94.561192
CG 73.572492 3.296016 71.702911
CG 69.767457 17.317397 86.074389
CG 74.189555 30.152743 85.674585
CG 51.259297 4.843259 81.523805
CG 62.296867 6.305801 77.773998
CG 74.928946 18.510805 95.711964
CG 74.436439 7.699660 116.262448
CG 71.297835 7.420504 122.030582
CG 56.364441 115.316849 124.669955
CG 79.590784 5.366580 112.495069
CG 68.282964 115.733381 1.961549
CG 76.006063 16.841682 3.907541
CG 72.299313 6.860505 8.276274
CG 78.762226 18.488020 9.848619
CG 77.908228 30.422681 4.469761
50
frame
CG 74.027119 12.702891 37.874482
CG 70.861164 7.201110 44.099663
CG 72.229871 8.060997 30.303181
CG 67.392745 22.636597 38.705706
CG 64.649712 2.657046 44.251858
CG 64.891422 10.619127 59.621180
CG 70.698137 21.989829 69.184223
CG 77.817682 14.632061 58.427737
CG 63.824095 13.658807 75.353746
CG 62.609351 6.447679 55.510510
CG 79.461474 11.745346 46.440797
CG 84.538735 10.343588 72.598321
CG 75.579285 19.936656 72.154690
CG 60.724669 19.504816 53.917067
CG 67.271789 11.971810 47.418784
CG 86.360674 8.587535 51.089879
CG 79.958785 122.421494 58.581164
CG 62.294001 115.872114 76.931815
CG 71.154932 119.726066 94.150415
CG 78.766282 106.339338 88.541584
CG 71.743624 111.563851 79.419488
CG 69.443249 0.633433 78.581705
CG 67.031879 112.010857 77.611543
CG 73.155267 5.907360 69.798240
CG 62.046430 8.169362 67.287742
CG 64.753030 2.695731 60.618614
CG 67.950046 9.969063 54.895103
CG 67.355852 14.217026 51.673202
CG 70.896687 18.021347 55.079821
CG 73.976072 10.928772 54.544920
CG 64.768695 15.598306 54.810076
CG 72.195570 18.138852 58.100695
CG 58.548774 121.596396 76.961315
CG 71.251031 24.391128 72.873081
CG 63.491615 13.585348 75.693587
CG 65.622998 11.979833 99.574778
CG 63.584617 10.274749 98.607170
CG 63.841609 120.024066 91.586804
CG 74.747910 13.943408 96.968145
CG 72.200973 15.510080 96.251895
CG 59.454021 121.562059 90.095732
CG 66.153916 3.507325 77.011518
CG 74.350940 16.670722 83.341074
CG 80.567394 18.625335 93.802534
CG 67.264741 11.087202 106.218763
CG 69.763138 8.270949 112.537992
CG 75.913155 119.952839 121.646766
CG 81.397745 9.309868 6.303168
CG 72.830998 20.280048 3.779614
CG 77.308438 16.070814 7.387937
50
frame
CG 71.135568 14.597258 30.544191
CG 69.636650 23.010948 29.961401
CG 70.493641 8.111037 54.313600
CG 73.786948 1.799437 67.222240
CG 73.646508 5.273393 73.991584
CG 78.622149 13.625100 83.622690
CG 84.882061 121.416992 71.850400
CG 122.851310 17.364803 95.803347
CG 113.848770 26.050146 4.060825
CG 24.718423 37.919089 58.756732
CG 92.067924 44.005931 68.441068
CG 68.934302 27.044802 51.459150
CG 68.194931 17.965615 44.118018
CG 73.269759 1.808778 60.601503
CG 60.898525 1.167598 55.331634
CG 47.969978 118.925682 52.806117
CG 64.135860 11.147933 49.070413
CG 78.287092 0.285923 46.761156
CG 71.073583 111.123094 59.550498
CG 67.296315 8.330053 86.157257
CG 64.384994 100.299578 113.048045
CG 80.116610 110.581957 98.751564
CG 71.306265 124.476096 83.750841
CG 61.812263 0.508224 63.851101
CG 76.580592 4.089630 58.332203
CG 63.907125 9.450512 56.190022
CG 85.197310 10.606978 67.253689
CG 76.543532 122.627998 59.059581
CG 87.591151 6.180233 53.606823
CG 64.956222 3.969644 46.228164
CG 84.287567 14.895944 49.867619
CG 55.117308 7.928936 67.342237
CG 82.136755 40.037212 54.631593
CG 55.519091 124.188863 63.201600
CG 110.818020 6.610815 62.701877
CG 45.042156 1.587847 95.853020
CG 59.925262 123.809878 95.689896
CG 63.538086 5.238268 111.294065
CG 70.507740 123.160053 102.969820
CG 66.245494 116.801356 94.419844
CG 77.996359 16.256662 81.910673
CG 73.734126 23.296474 79.439903
CG 60.661938 0.861298 74.099682
CG 73.737008 18.202559 69.452544
CG 75.250691 10.525531 91.306306
CG 89.624350 31.284903 97.143287
CG 68.703529 22.461650 105.951586
CG 69.724133 14.941373 107.239914
CG 78.653567 117.789352 120.807741
CG 74.352799 122.907595 3.400764
