50
frame
CG 48.223821 8.751008 24.019334
CG 43.832063 77.440374 30.373424
CG 63.496194 61.525247 61.645548
CG 63.471810 60.011567 62.511289
CG 62.490071 60.033973 63.937134
CG 83.231734 45.321185 97.214547
CG 61.683769 58.276146 57.578589
CG 63.288288 61.772064 62.478661
CG 77.123964 116.465876 100.796515
CG 61.369614 66.069284 67.195873
CG 62.279549 63.089326 63.613940
CG 63.955973 62.434075 63.091029
CG 58.445364 61.795669 68.569010
CG 63.249445 61.703213 63.337319
CG 55.578554 36.321349 97.266055
CG 58.844488 65.741110 63.842282
CG 62.967949 64.203654 64.416357
CG 63.885980 64.299835 64.770958
CG 64.271719 63.387582 64.598445
CG 80.528451 88.344365 27.585239
CG 64.463902 62.189672 64.757706
CG 63.503355 61.985273 64.868361
CG 63.973158 62.584706 65.500049
CG 63.631553 62.162152 66.349643
CG 117.632629 45.180384 4.076193
CG 62.655860 61.947519 65.609327
CG 9.558324 20.529884 103.432657
CG 64.244400 60.989260 66.550316
CG 63.456701 60.515962 66.113177
CG 62.592115 60.936008 65.769099
CG 62.592422 61.563770 66.639431
CG 63.279050 118.587700 90.087156
CG 63.401199 60.718476 65.233667
CG 62.639811 60.134467 65.491807
CG 62.082978 59.943672 66.292249
CG 61.781817 60.534897 65.530729
CG 61.570818 59.625311 65.199525
CG 56.299287 44.563337 74.205859
CG 82.339862 31.138527 51.737867
CG 62.293966 57.440975 64.917371
CG 37.630494 87.617821 93.524192
CG 61.332193 58.608975 64.969406
CG 67.915317 73.278846 56.432432
CG 63.507930 58.589327 64.967777
CG 80.520657 46.751934 11.520094
CG 62.752053 58.152329 63.145681
CG 90.801602 103.746505 33.594868
CG 62.560641 59.215119 63.883673
CG 19.094490 22.405245 5.550001
CG 61.394953 57.926077 63.427962
50
frame
CG 53.361760 63.942425 46.860763
CG 59.727697 99.018518 48.313635
CG 53.262938 93.647687 41.423427
CG 61.641758 67.465777 59.774883
CG 66.586397 58.542330 66.362637
CG 57.056010 69.595230 53.126587
CG 72.599144 78.681106 86.366545
CG 72.042527 72.435616 82.969772
CG 60.254812 43.140256 50.845252
CG 79.277192 69.103436 54.625906
CG 89.292495 32.508206 48.491193
CG 68.592118 64.125226 58.660046
CG 29.393901 64.854737 97.977950
CG 15.093944 73.051223 105.320537
CG 14.977783 86.350759 85.494830
CG 28.237183 61.389547 97.088639
CG 25.594881 104.223607 106.407544
CG 52.055919 72.874382 72.115696
CG 65.812141 70.877512 58.067828
CG 58.737371 55.003326 76.627160
CG 67.969352 69.057857 55.246579
CG 73.379679 70.227005 48.437208
CG 83.304145 57.614008 41.806281
CG 72.235708 55.874650 52.842014
CG 28.110743 55.686550 95.596154
CG 64.471785 49.849118 58.105144
CG 99.856006 71.096619 29.921168
CG 54.586352 51.147284 69.162155
CG 45.102944 51.441448 80.308728
CG 59.744857 77.902508 77.194317
CG 63.269911 74.239097 71.074253
CG 68.632588 39.430535 53.982116
CG 96.045927 58.930955 48.726981
CG 103.933079 62.600679 45.008872
CG 95.828845 48.526494 43.678383
CG 65.299461 51.535332 60.571048
CG 64.098841 47.660803 58.972606
CG 65.201678 59.674354 58.289579
CG 48.270006 72.862276 83.916031
CG 65.362315 53.840463 74.959612
CG 93.171273 42.111231 49.405078
CG 76.673973 65.938394 62.397729
CG 70.241512 59.931915 56.466682
CG 69.887254 65.050038 48.609608
CG 68.028199 82.553335 67.890935
CG 70.627589 64.913737 40.058087
CG 44.659548 27.522362 35.608933
CG 59.695739 58.990647 38.186757
CG 82.317935 82.550263 66.923562
CG 40.117120 41.960175 27.952394
50
frame
CG 67.628540 60.234129 69.570360
CG 67.234330 49.118733 71.683324
CG 60.245922 63.757018 57.283626
CG 54.182202 107.329249 41.068061
CG 58.135287 112.006053 55.662013
CG 56.689457 92.683327 54.190376
CG 62.363380 50.695461 48.966788
CG 71.657490 67.383507 40.391579
CG 86.843792 42.187802 43.060630
CG 71.712619 30.852828 71.395534
CG 44.523908 117.268789 66.009984
CG 26.992786 85.778578 99.080884
CG 50.005471 93.984124 63.412921
CG 4.875394 82.194449 109.002121
CG 13.267570 80.832466 104.638672
CG 117.327462 89.753790 114.602319
CG 6.360269 54.336989 100.903693
CG 17.193249 53.035980 111.417604
CG 26.541378 62.957921 102.707327
CG 48.591999 60.997229 83.113609
CG 75.633255 61.788377 48.996046
CG 65.359203 49.111891 64.005596
CG 37.365389 63.019725 81.475379
CG 64.680816 59.853973 51.671321
CG 75.852574 76.890692 54.763173
CG 64.471939 58.346115 58.717151
CG 53.815286 76.467919 79.568245
CG 69.247196 71.942107 60.884271
CG 95.928578 81.608413 38.742486
CG 66.743529 31.581874 52.989514
CG 80.971091 40.799705 56.181712
CG 103.256740 32.216276 36.195689
CG 86.175205 54.520657 51.256104
CG 102.370917 20.775086 28.063700
CG 88.636904 52.998709 48.038724
CG 110.773459 56.994519 36.012098
CG 82.723868 65.326286 56.830358
CG 74.778892 61.137206 64.121364
CG 80.000200 55.825004 50.884961
CG 85.167124 65.065209 53.961699
CG 73.101929 53.520669 54.110580
CG 88.971578 53.618817 51.883982
CG 88.533895 54.845092 58.724653
CG 79.977073 68.181466 46.806412
CG 43.571780 41.304714 66.140482
CG 58.466782 60.239318 39.320139
CG 63.312305 68.300861 85.948505
CG 53.049201 48.787199 22.225739
CG 58.060680 44.002812 43.727803
CG 85.352448 85.091921 47.810517
50
frame
CG 72.842499 55.063112 79.537393
CG 61.369449 69.790570 61.667112
CG 72.044276 82.030630 80.773194
CG 66.074696 61.660712 73.156575
CG 55.228687 59.926645 33.887873
CG 73.514799 83.622014 34.772511
CG 67.454470 92.365387 13.266651
CG 56.609165 36.161768 41.162522
CG 38.561966 57.333739 78.005738
CG 21.752420 47.635589 65.671431
CG 34.929091 99.088086 87.160606
CG 26.922018 93.897479 86.849232
CG 3.871727 87.816580 106.610118
CG 34.403431 102.609612 77.766477
CG 21.665527 86.216158 98.679785
CG 14.473251 73.166122 104.141007
CG 11.941023 46.282620 107.858322
CG 119.360849 50.619738 113.131018
CG 13.931246 40.993617 99.402656
CG 22.594546 54.271935 91.263153
CG 119.369317 47.796257 11.139735
CG 32.079775 63.073677 90.448074
CG 76.091484 67.749444 55.232664
CG 49.844383 68.419103 83.803983
CG 68.538279 65.826724 51.808212
CG 69.082437 98.647779 64.571048
CG 68.324042 64.381465 56.256658
CG 87.174518 57.203139 42.157350
CG 76.929759 40.244500 57.273918
CG 122.260908 52.425146 21.459299
CG 117.480863 38.824218 11.698162
CG 89.944613 43.240118 43.628834
CG 91.068066 10.520748 34.852626
CG 85.401550 53.781468 52.479800
CG 92.792770 51.801874 46.002367
CG 93.140105 41.716649 45.664482
CG 116.260367 54.796525 33.473216
CG 124.931453 58.298356 28.791811
CG 115.451989 50.633696 30.169889
CG 92.022467 53.805378 37.508627
CG 83.323693 76.834471 59.216490
CG 75.494743 58.046809 45.921898
CG 55.897071 47.905698 50.478407
CG 64.328504 34.141718 66.448737
CG 96.695641 52.828361 37.425790
CG 58.397393 45.133226 20.253227
CG 64.508381 63.637671 84.293285
CG 83.611822 83.119102 47.130007
CG 66.453603 74.583267 68.870942
CG 67.277206 46.582336 59.996909
50
frame
CG 62.482682 90.163551 67.527217
CG 76.758207 72.891311 85.385684
CG 64.862368 47.411975 49.812393
CG 78.582367 48.858426 47.493984
CG 87.401065 54.685518 56.386475
CG 55.438229 14.679733 50.208820
CG 34.101293 44.959902 79.132879
CG 22.510788 90.148883 65.551914
CG 11.611516 85.232122 45.848535
CG 18.814756 76.205239 71.814145
CG 124.776280 63.640857 95.796596
CG 22.558916 103.449589 62.891090
CG 21.705813 95.853404 100.718254
CG 20.531139 76.091099 100.791828
CG 10.774404 83.498667 97.064139
CG 37.011160 81.788768 80.600479
CG 22.895524 88.262808 96.777729
CG 27.326085 16.053584 85.446278
CG 110.409376 40.725842 2.807710
CG 98.991938 42.340686 10.506449
CG 23.999229 57.114284 86.325275
CG 10.591197 66.991823 113.235715
CG 9.850456 58.233964 119.936862
CG 51.132435 87.890932 82.313747
CG 53.482224 69.725362 81.740332
CG 74.655654 42.944436 55.385064
CG 105.019346 48.301547 25.530764
CG 104.735130 61.002857 35.513119
CG 106.739840 38.005053 18.910966
CG 93.296317 54.246963 40.167211
CG 86.244062 32.828242 46.747897
CG 107.188288 50.963124 25.332864
CG 117.502705 62.630030 22.419685
CG 94.032284 47.413509 44.529931
CG 113.928775 19.834024 26.820213
CG 105.928784 54.067798 38.594737
CG 116.707226 34.069910 24.260626
CG 109.550448 37.521635 21.871475
CG 112.548117 71.173167 39.319082
CG 114.479059 56.837437 30.083640
CG 101.428599 32.479455 17.204822
CG 69.844902 45.292838 52.197136
CG 90.428543 63.131421 39.344950
CG 66.977938 51.486216 31.036560
CG 60.646119 62.224520 84.440172
CG 101.831675 66.156040 62.977317
CG 95.603557 51.598964 40.367040
CG 67.380174 41.939431 40.960821
CG 81.924938 64.287571 71.710552
CG 61.500411 74.216521 76.378654
50
frame
CG 73.629696 61.645668 57.493652
CG 71.591602 63.777403 39.944459
CG 81.743776 61.689927 54.980614
CG 61.299473 37.929007 63.850875
CG 35.209335 25.324678 88.895107
CG 30.432837 72.340352 91.401122
CG 30.912538 45.081599 80.518400
CG 16.147249 48.550489 82.966774
CG 10.790725 53.396104 96.400573
CG 11.661394 93.554146 67.549921
CG 14.865034 55.111932 7.314126
CG 124.831794 87.521180 19.195728
CG 18.661491 96.046748 26.049114
CG 12.168796 87.473306 115.842738
CG 37.192378 69.104974 89.449460
CG 10.507168 67.477659 101.005109
CG 0.527503 100.240002 100.807331
CG 5.466111 12.839873 116.537485
CG 36.385562 9.307828 79.355319
CG 31.259222 30.569208 93.078696
CG 118.009807 51.374135 123.014070
CG 1.608351 54.622204 116.649798
CG 8.800792 69.120041 105.187714
CG 26.250908 27.068375 92.944721
CG 53.667324 44.578828 84.806318
CG 82.853786 48.037517 54.554589
CG 81.404705 50.022781 60.751082
CG 83.363958 27.907169 42.227911
CG 108.261161 61.911761 30.211042
CG 90.200175 40.600345 33.700783
CG 108.655750 76.395939 29.895743
CG 101.839981 48.711049 38.659130
CG 98.341687 48.733878 46.475493
CG 17.834171 37.725647 122.542713
CG 124.342168 64.903688 16.418983
CG 124.985381 28.536468 9.438285
CG 99.166866 46.238624 36.849852
CG 98.923343 52.781549 42.278028
CG 96.335152 9.364260 11.700337
CG 91.117043 31.374368 31.128475
CG 106.571301 57.263115 32.455684
CG 124.024227 53.639602 8.820621
CG 97.048013 42.311522 48.563081
CG 114.471798 82.555454 60.533545
CG 94.910757 55.712788 21.856370
CG 69.314221 50.816880 65.500549
CG 72.378475 61.700711 64.081018
CG 89.468095 63.381734 101.174205
CG 78.556517 46.214595 42.451753
CG 90.732740 58.963926 50.711330
50
frame
CG 86.464608 31.183387 26.488321
CG 60.447318 27.748481 46.881376
CG 36.446442 42.246450 87.941956
CG 24.318159 78.529053 92.652840
CG 24.717196 73.468696 73.165076
CG 24.960845 50.617741 95.356190
CG 12.116979 59.705870 99.300379
CG 24.223477 58.389989 96.884853
CG 31.072419 67.076856 87.982170
CG 4.561496 29.393689 107.011036
CG 21.381556 41.724551 75.308633
CG 17.566647 80.154609 74.185077
CG 10.916854 48.283095 111.412999
CG 8.366315 74.722508 20.640292
CG 114.846988 84.990842 38.016191
CG 120.143011 78.167634 16.154537
CG 41.654266 124.306904 91.881315
CG 19.778771 18.764685 92.804305
CG 6.031785 23.667442 109.657193
CG 25.966972 24.093590 93.901830
CG 33.075790 9.832805 94.106315
CG 43.989868 3.270742 73.121466
CG 49.602613 13.530957 76.842256
CG 32.385120 35.093576 93.842442
CG 38.841950 32.552407 73.424772
CG 29.055268 30.227977 94.238193
CG 51.057373 40.130332 80.624202
CG 76.473906 54.848846 60.073145
CG 65.417553 56.567028 75.636822
CG 108.103415 53.682817 39.068460
CG 113.088607 46.768341 27.449415
CG 123.236940 50.584122 14.466231
CG 4.390167 55.078347 3.889661
CG 108.308203 54.918677 31.149193
CG 100.158157 50.823619 36.323684
CG 116.059843 51.896034 17.883242
CG 114.671782 37.489648 1.094099
CG 105.970108 15.030322 8.462982
CG 96.877338 47.835702 39.501364
CG 108.470051 42.640487 19.725457
CG 98.797299 28.033713 38.441262
CG 118.449672 56.694163 50.089565
CG 123.708295 64.485977 14.878694
CG 111.473703 32.166089 30.616647
CG 115.870685 54.737019 55.677724
CG 102.303838 71.737788 60.404985
CG 85.552218 55.190188 59.011535
CG 86.559255 62.358194 35.600950
CG 89.179104 62.840825 69.796016
CG 101.612115 33.268221 60.152478
50
frame
CG 15.525494 14.753534 83.169994
CG 36.998770 45.161735 86.451088
CG 28.881883 46.379923 42.475188
CG 27.355329 34.318030 70.058251
CG 20.073588 72.055354 104.586577
CG 14.786955 69.446432 86.518078
CG 28.444345 81.267244 89.099196
CG 12.603445 51.277287 105.693583
CG 12.459430 34.635116 90.930966
CG 42.961084 64.239854 93.091694
CG 15.662383 92.828770 82.199677
CG 19.658246 45.525462 111.599627
CG 120.182440 87.471257 84.276019
CG 1.585411 64.480247 95.021755
CG 13.633003 71.583426 106.870950
CG 30.253483 94.481511 1.718751
CG 107.658333 121.018895 51.122868
CG 22.235984 34.251596 122.642446
CG 39.174313 26.716250 101.415684
CG 28.577167 116.722356 84.965571
CG 65.685955 114.627165 53.140028
CG 56.347026 4.452012 76.561238
CG 53.420875 103.510660 69.890299
CG 58.759626 3.463389 60.317827
CG 38.749021 11.560807 87.519253
CG 35.524250 39.795510 86.846397
CG 30.734567 39.568764 83.661303
CG 42.113745 53.147761 100.550367
CG 74.554002 25.673827 59.204561
CG 90.035303 61.428893 55.807796
CG 90.838767 37.104051 48.222526
CG 108.319863 58.949461 33.546943
CG 109.511641 49.573810 26.385596
CG 97.165343 60.484864 27.938944
CG 122.349259 27.093789 115.602120
CG 85.559357 44.471760 30.950967
CG 102.847782 45.079272 35.362952
CG 119.500396 56.564431 10.011365
CG 2.517791 49.841816 14.111385
CG 124.587245 42.646330 36.249430
CG 124.435913 57.290160 18.942577
CG 90.117872 21.128735 33.995675
CG 112.850692 33.227671 58.554171
CG 107.957317 54.739282 44.739286
CG 108.527043 59.451068 49.715954
CG 5.890475 39.776199 9.255447
CG 12.943538 58.154118 43.482504
CG 112.843056 38.447118 38.761053
CG 112.532657 40.938405 60.307297
CG 82.790871 70.745629 59.676601
50
frame
CG 107.895232 64.308965 107.495416
CG 100.030514 25.154388 92.280223
CG 5.264674 38.972039 115.696467
CG 23.422589 49.862874 79.332118
CG 28.975931 31.268078 54.710068
CG 21.512071 51.495200 83.144367
CG 6.938169 42.330822 92.859451
CG 25.038430 84.854494 71.576441
CG 14.574328 96.556534 95.874688
CG 6.371099 66.201200 92.285422
CG 14.438341 121.760733 123.066788
CG 17.285502 68.562069 95.891396
CG 42.421160 50.752803 99.744525
CG 31.988323 76.736487 89.326204
CG 8.089014 88.421313 90.278098
CG 6.583609 74.478187 89.568756
CG 35.981953 100.144882 83.436988
CG 29.710060 1.930369 5.101714
CG 39.724194 112.793227 113.115144
CG 65.930524 16.670556 100.884264
CG 40.437049 5.159075 97.173232
CG 47.874140 107.355471 66.797891
CG 51.934289 11.154144 68.178706
CG 51.770700 118.007116 77.150989
CG 55.248416 2.276602 72.988266
CG 71.766665 7.625790 61.619234
CG 68.906394 14.046125 73.348636
CG 54.346564 19.291143 61.149418
CG 55.947096 49.756548 70.391414
CG 37.690784 27.708548 86.023895
CG 71.150831 56.350964 63.510339
CG 60.611313 43.937918 66.535487
CG 72.081079 31.041675 48.687435
CG 103.298059 26.732187 16.573790
CG 90.224531 65.040386 47.086662
CG 122.717821 50.394541 7.803384
CG 123.703184 51.254867 8.618993
CG 109.971221 66.707722 57.093576
CG 121.246276 47.259603 21.231164
CG 108.384192 46.519904 18.133199
CG 124.662674 40.492692 42.117273
CG 9.456036 57.290281 30.015937
CG 99.437198 44.368929 38.503595
CG 118.202597 36.376277 31.716489
CG 7.644781 24.175790 19.110589
CG 117.041123 34.867200 54.802101
CG 123.271544 33.123777 28.408906
CG 12.391822 56.837233 54.076689
CG 121.350395 64.410653 20.024253
CG 8.777849 43.732655 38.679749
50
frame
CG 92.562937 44.243541 115.440063
CG 104.070327 75.498120 112.466783
CG 100.671538 47.927010 106.129568
CG 94.365684 37.309438 112.617709
CG 115.722765 30.988344 107.432101
CG 24.296437 46.139670 67.471852
CG 23.633221 62.962006 56.552851
CG 7.600673 57.424854 87.036744
CG 14.550456 71.104371 101.461751
CG 4.064504 105.318924 97.436794
CG 34.086458 39.354883 87.931734
CG 26.045999 76.412062 86.521453
CG 18.564379 77.056046 114.703940
CG 26.325606 74.894040 98.360667
CG 61.231931 61.323202 82.843629
CG 42.251634 89.034011 83.432334
CG 59.993180 38.199187 44.660059
CG 52.236657 97.710176 47.138056
CG 42.045255 120.745415 83.390331
CG 33.757992 110.569779 109.498647
CG 38.556578 4.922707 121.157357
CG 52.502872 20.636082 111.106187
CG 47.913428 10.888695 97.889381
CG 58.811679 4.538810 72.345918
CG 83.751819 5.491110 49.662330
CG 66.823270 105.599343 61.168166
CG 75.199655 4.267784 51.581506
CG 77.935653 123.524471 51.926989
CG 50.503599 20.397674 79.509543
CG 48.845391 21.574006 58.389044
CG 23.248325 23.175492 78.059432
CG 41.560288 9.727472 65.682405
CG 58.956412 60.333817 71.962857
CG 70.115878 49.871974 70.268399
CG 88.620578 41.903328 49.922434
CG 113.687934 54.985957 52.914036
CG 106.383835 65.931879 43.370013
CG 119.203636 30.187548 124.357241
CG 109.328473 53.922602 49.018963
CG 1.434020 69.550690 49.686767
CG 98.703774 45.173629 31.615489
CG 0.377045 50.935307 26.331333
CG 31.324576 40.065030 124.272587
CG 13.838913 29.998182 31.720799
CG 113.961496 30.759379 38.771223
CG 1.837035 46.579223 45.907872
CG 118.298611 37.651031 28.270342
CG 4.327108 36.449943 22.216557
CG 28.322982 33.551372 29.214218
CG 46.269837 49.741419 7.393376
50
frame
CG 98.115521 62.267024 111.297324
CG 88.891661 42.572830 6.649561
CG 81.621494 50.820547 104.870848
CG 106.323586 64.273245 100.899508
CG 96.649266 86.388485 105.277482
CG 76.597843 48.822136 122.263758
CG 117.064454 59.425207 121.862268
CG 11.374209 69.576833 92.076493
CG 28.609092 76.174491 50.934505
CG 44.551632 57.826396 81.522101
CG 6.866288 48.131820 85.250093
CG 23.655520 93.978801 108.643646
CG 43.846556 101.182902 59.295569
CG 50.912481 79.059513 78.691201
CG 51.318107 73.766126 73.291357
CG 86.903756 39.561366 49.645548
CG 50.257858 76.853774 99.105462
CG 52.850855 75.668744 66.949185
CG 57.016386 82.456683 52.636004
CG 39.750316 105.730443 56.997367
CG 56.074153 119.337834 71.901002
CG 43.318503 4.045282 110.805712
CG 71.001827 120.772421 99.223400
CG 72.992012 14.438485 92.395876
CG 55.007570 0.462060 88.049176
CG 70.014973 17.791840 61.360358
CG 59.365006 120.437631 58.377465
CG 51.410082 124.546702 70.617300
CG 57.380416 89.442415 39.496221
CG 69.777862 119.993348 51.998669
CG 56.963241 6.785068 67.913200
CG 56.545166 48.975131 71.009407
CG 46.507404 14.848505 75.033383
CG 49.722007 47.429818 95.460595
CG 79.486449 51.020578 69.576940
CG 52.931253 38.389425 70.050728
CG 84.793421 31.463866 80.150807
CG 110.279858 70.363367 119.817478
CG 104.201936 58.397327 110.831544
CG 119.114454 28.080158 8.381333
CG 29.699469 61.906506 12.096282
CG 124.051023 32.208897 37.274554
CG 111.540260 38.980267 53.648343
CG 4.008113 58.612949 25.071411
CG 24.983151 59.953125 19.852385
CG 20.096077 25.216689 113.654024
CG 31.275228 39.284814 38.116288
CG 34.149011 32.066493 3.523561
CG 40.695339 27.953863 11.300177
CG 18.160188 23.808805 18.072927
50
frame
CG 86.654561 46.419855 119.797089
CG 98.602272 66.757090 100.346824
CG 101.577580 68.548382 114.965300
CG 82.096972 53.520707 122.698155
CG 99.000688 45.865439 114.490683
CG 3.717198 75.251372 93.803439
CG 120.441831 74.272328 79.692055
CG 123.181355 57.471130 96.646576
CG 2.023318 54.425875 114.593452
CG 8.597419 79.594797 89.539527
CG 43.889433 93.205147 69.683127
CG 43.606682 63.772274 63.969833
CG 33.842652 58.439439 90.695449
CG 48.772461 72.032177 75.005317
CG 54.582579 78.789065 75.220321
CG 39.567784 91.043527 84.332394
CG 61.438337 71.466251 50.002443
CG 60.545178 79.056522 63.182160
CG 50.159990 97.598464 83.990351
CG 57.616832 100.015360 87.685851
CG 55.155267 104.332491 81.934909
CG 64.255677 116.069103 67.223093
CG 51.637401 3.981095 80.896943
CG 54.583452 0.543899 84.107665
CG 69.015745 4.975664 76.158462
CG 57.309007 119.682903 82.343421
CG 59.738179 119.635439 67.878696
CG 68.087549 120.580630 51.845214
CG 60.314352 16.435501 71.005585
CG 50.120503 12.379097 68.176000
CG 56.016281 5.478210 59.535085
CG 58.027733 5.053053 70.777985
CG 66.921262 40.384711 72.515490
CG 63.560129 33.150357 63.800955
CG 57.158842 29.399115 85.794951
CG 89.454472 53.428549 101.943884
CG 88.097941 59.717172 99.959241
CG 86.935078 30.181681 93.525353
CG 117.055268 41.964037 117.720561
CG 119.132110 60.466621 8.095783
CG 101.176582 37.834159 21.495887
CG 3.894181 53.027928 15.389386
CG 24.762223 55.211024 7.860501
CG 12.788122 32.267224 22.558927
CG 6.569000 32.659731 31.161644
CG 22.187836 51.957039 32.591177
CG 26.833269 37.764611 0.015567
CG 23.176815 29.541626 16.394994
CG 20.636775 30.370241 20.418391
CG 39.206165 30.532926 9.753728
50
frame
CG 101.099330 73.778539 101.710857
CG 85.104035 55.949083 116.709179
CG 100.819605 45.414121 121.188440
CG 0.807333 72.578146 94.453060
CG 2.695660 63.432878 89.734676
CG 122.048882 55.685834 96.515571
CG 115.754662 46.053368 108.230167
CG 124.761489 82.679456 93.210243
CG 7.810695 91.388912 91.630663
CG 5.633968 65.572225 85.967381
CG 21.449557 58.054231 111.514128
CG 32.830051 62.668705 70.187595
CG 53.441801 70.908404 75.551176
CG 33.276753 72.424373 73.212577
CG 37.706159 65.428512 70.745297
CG 31.630053 101.698488 78.283496
CG 46.196094 106.702165 74.793766
CG 45.223441 114.273550 99.204511
CG 63.845535 93.363454 79.643998
CG 76.480998 92.416925 76.517907
CG 55.265824 104.598516 85.517200
CG 61.536310 98.195126 66.868862
CG 56.017765 106.826254 55.983073
CG 51.460737 100.883775 54.475480
CG 50.854237 115.810009 64.204106
CG 56.867984 111.186791 71.412893
CG 67.484278 20.084145 86.822033
CG 55.320997 15.025063 87.724670
CG 58.084611 29.015666 83.224858
CG 60.309528 13.689205 72.632361
CG 66.404896 41.773261 77.651905
CG 62.075307 8.928220 61.960979
CG 68.273857 11.503457 69.586384
CG 92.905591 14.339254 83.079133
CG 86.803988 45.651241 98.757174
CG 90.808109 25.771316 91.088089
CG 91.024595 33.365660 120.165811
CG 100.325874 48.019601 121.921069
CG 82.807187 41.191417 3.586800
CG 94.213996 45.987513 104.369754
CG 117.007171 45.015277 109.144163
CG 3.285226 53.642691 116.057472
CG 120.747821 31.729863 1.480755
CG 21.359856 46.835088 15.295248
CG 26.910261 35.791074 121.620484
CG 13.344703 30.622698 35.814221
CG 0.175224 28.806646 25.813987
CG 22.574100 48.521154 31.623856
CG 27.966844 40.521770 2.829175
CG 22.889355 37.747919 18.503142
50
frame
CG 101.059720 56.611494 115.994797
CG 8.180266 73.118410 98.483202
CG 1.123951 78.675193 70.588574
CG 122.137519 47.372801 96.362881
CG 119.397691 59.893703 109.228684
CG 117.623216 68.825232 101.169279
CG 16.967603 89.883933 94.740154
CG 7.282353 56.838784 95.766427
CG 9.186763 47.723211 88.601956
CG 31.182001 68.259631 93.192216
CG 7.522312 66.151413 73.855684
CG 4.902496 77.501023 115.590234
CG 9.310360 72.430780 80.240814
CG 28.157477 85.957921 79.528545
CG 32.651807 112.101805 82.335440
CG 52.769224 78.943109 77.386259
CG 32.436536 97.664775 113.495023
CG 52.069423 102.142008 76.935237
CG 51.431355 117.350055 81.198203
CG 38.597045 114.795180 76.795655
CG 73.112184 90.578357 48.726902
CG 55.159010 88.428555 70.577809
CG 60.134526 80.592685 67.310569
CG 63.857353 99.732271 60.519526
CG 52.982454 107.593216 65.481149
CG 54.434832 15.394517 63.197260
CG 42.470494 4.467896 73.574685
CG 55.587630 22.928128 93.445699
CG 67.956067 18.869360 85.485382
CG 72.803562 34.338007 89.546503
CG 69.949273 10.681658 86.634072
CG 94.218803 46.120288 95.969098
CG 92.696727 30.091101 99.836367
CG 80.270225 20.844346 99.562845
CG 109.587608 0.090361 93.355076
CG 93.269575 18.637683 115.733124
CG 90.773208 23.089406 108.839005
CG 90.813541 37.770717 113.764192
CG 100.116222 42.915208 97.312074
CG 106.691191 31.111307 115.734844
CG 108.289322 45.710822 104.802499
CG 103.852248 24.364141 105.418280
CG 124.581159 40.390739 109.089076
CG 118.991397 38.907815 111.749046
CG 119.007880 38.962554 17.854919
CG 16.122472 36.311141 112.105252
CG 35.066730 47.145186 20.134108
CG 8.088015 30.776090 15.762455
CG 5.423100 41.895108 38.782402
CG 8.426408 55.571915 21.426349
50
frame
CG 38.266320 75.627625 68.942054
CG 5.293046 54.284907 86.771360
CG 1.647732 61.067776 115.334806
CG 122.979777 83.915199 99.604897
CG 10.622800 88.816747 78.323448
CG 18.726934 63.689088 93.401022
CG 4.621341 48.611956 89.820264
CG 24.410671 60.638455 95.263642
CG 21.315207 67.938008 91.888330
CG 119.262021 62.599740 104.093363
CG 9.679593 75.029383 84.410547
CG 19.890427 84.144473 74.051946
CG 122.481964 105.942242 100.217422
CG 14.771025 93.984395 115.387688
CG 17.333891 85.964142 114.765758
CG 29.645147 106.776155 98.511682
CG 51.393843 105.028261 61.981851
CG 40.698410 87.147729 71.461117
CG 35.577599 90.157275 75.553130
CG 47.382482 92.254611 65.166184
CG 35.994071 102.060810 78.149696
CG 53.486068 109.578109 60.401275
CG 62.983898 108.366629 64.635052
CG 54.449073 116.969046 81.958052
CG 60.311352 112.229267 74.852176
CG 55.786977 116.742661 84.013424
CG 62.598497 122.552478 68.037027
CG 68.608605 13.863709 56.385252
CG 60.230802 6.378963 84.880433
CG 83.088991 30.719749 109.202375
CG 100.462087 30.241362 112.434322
CG 87.662792 21.125882 123.806749
CG 104.227991 17.266915 115.357232
CG 106.557558 36.268553 121.324912
CG 79.976956 22.555563 120.417233
CG 93.099251 25.022853 108.157378
CG 112.262126 17.451154 84.280044
CG 103.471546 0.542346 92.727221
CG 115.100502 17.414777 100.163940
CG 104.096314 29.287793 102.432687
CG 101.238516 20.780443 107.335292
CG 106.213416 33.416310 111.943227
CG 100.605947 41.526200 113.313006
CG 103.618404 21.802938 97.518328
CG 3.308100 43.843253 106.475858
CG 117.186640 48.202206 121.313567
CG 113.608487 43.034218 1.755599
CG 8.859863 52.253349 123.793262
CG 8.925974 56.545419 22.275148
CG 119.701304 34.889914 38.929553
50
frame
CG 24.268896 59.014453 86.707313
CG 34.950402 89.476366 76.256983
CG 41.291111 82.266723 70.171225
CG 34.296639 70.913950 80.704150
CG 16.432249 46.759315 102.133848
CG 20.792961 75.035830 84.718309
CG 22.173175 69.050527 87.036602
CG 1.079198 72.611612 90.501044
CG 1.413607 76.358939 94.008159
CG 18.564245 84.324372 70.417818
CG 11.950708 99.222422 122.443203
CG 123.000916 86.718697 108.401650
CG 32.480833 81.343960 113.324822
CG 12.912064 104.022085 89.850094
CG 20.570985 100.293238 80.074528
CG 4.583217 97.992169 98.697285
CG 13.796576 77.544628 87.203666
CG 24.077732 101.863910 86.454096
CG 41.179320 86.138177 56.808502
CG 47.171299 87.162814 66.141762
CG 34.606687 108.959288 80.776104
CG 42.219823 116.371202 83.834973
CG 33.092733 13.278578 87.590761
CG 51.238852 121.372804 74.841056
CG 65.813717 4.651745 76.492790
CG 73.148183 110.287414 69.271168
CG 81.377840 124.114522 89.556875
CG 79.485006 113.045295 106.552567
CG 100.889304 20.014005 95.570359
CG 84.096039 114.595639 87.258451
CG 86.186724 17.804269 117.659804
CG 99.730646 13.074258 122.326445
CG 84.015931 31.235177 11.559633
CG 96.402675 13.051015 124.735939
CG 113.820062 42.042720 109.871428
CG 117.219222 15.172560 93.217542
CG 97.923913 16.048026 120.043366
CG 115.892847 23.110504 95.523662
CG 102.068189 120.421029 97.456954
CG 107.375446 0.775900 89.550631
CG 108.151131 15.831312 105.044735
CG 104.571740 28.487374 97.995189
CG 103.968064 15.482603 100.347901
CG 111.322331 54.623544 2.740597
CG 88.380204 37.432680 95.730774
CG 98.921753 39.983409 114.765404
CG 102.254720 51.513069 105.816533
CG 100.213852 52.443289 23.811148
CG 104.063652 32.893561 119.886206
CG 8.284919 55.320057 121.335775
50
frame
CG 38.432166 99.261750 77.756465
CG 51.783825 66.375081 81.882231
CG 39.491376 56.613366 71.171421
CG 52.903488 64.900097 68.838895
CG 54.270090 80.372864 69.101701
CG 17.855021 66.910136 85.314438
CG 11.744379 86.905634 96.989362
CG 18.264434 94.617576 75.237349
CG 13.731007 98.425738 98.946413
CG 8.330444 100.763775 122.344221
CG 16.316210 79.002759 92.142699
CG 27.858286 103.030253 105.993562
CG 11.805111 98.226076 86.847844
CG 9.129591 80.115268 93.615276
CG 12.619527 85.143833 92.356479
CG 21.398291 82.385373 64.974613
CG 5.838578 99.102064 89.110064
CG 14.240310 85.829090 80.251389
CG 12.300560 107.114397 105.820918
CG 10.483062 4.041026 102.909152
CG 47.546140 113.907318 66.629589
CG 35.428804 110.420687 83.781905
CG 49.201314 110.498270 83.497078
CG 57.496471 0.631189 80.339070
CG 54.688706 5.877579 96.153272
CG 78.500063 14.483251 104.406167
CG 93.044217 4.798504 102.386851
CG 99.481935 114.881883 101.724740
CG 94.838293 106.679114 119.413403
CG 101.187792 124.601771 4.030454
CG 86.808467 119.772824 106.916133
CG 86.704591 5.316764 96.568015
CG 105.219526 16.485235 99.380162
CG 103.860366 15.291029 100.927857
CG 107.244144 0.698393 122.905335
CG 107.487501 21.850338 5.016004
CG 116.534885 18.860170 104.979192
CG 105.856427 9.771898 109.980774
CG 102.756714 26.243274 109.586764
CG 110.550574 16.500265 105.085254
CG 106.994885 3.062687 84.954036
CG 108.287327 6.998240 103.184421
CG 103.047469 31.734813 100.056968
CG 89.200931 25.299286 93.278073
CG 89.343331 35.064093 3.694047
CG 88.502034 50.040017 124.903364
CG 86.861503 33.109604 118.904773
CG 94.549718 34.151186 84.264388
CG 104.234982 58.994911 97.670205
CG 79.467468 46.390286 96.997038
50
frame
CG 71.697148 59.654352 66.581925
CG 47.364029 77.895973 66.497830
CG 55.799110 93.349164 83.197939
CG 31.526178 73.942964 84.527795
CG 28.236064 88.678177 67.214186
CG 56.877975 96.691527 66.131429
CG 43.969049 100.385137 72.153976
CG 28.924058 95.522062 123.400124
CG 29.526173 94.301781 95.607057
CG 25.936964 99.625641 94.844683
CG 16.443799 109.954836 81.739345
CG 13.477226 84.331883 86.019004
CG 2.105876 84.478542 83.077613
CG 30.331291 87.804473 81.835655
CG 4.698932 87.324301 86.042480
CG 10.237699 84.646885 97.001899
CG 20.544963 104.279932 90.975615
CG 7.096358 118.121038 95.482009
CG 8.572442 123.747674 92.374194
CG 18.284066 102.615273 89.273740
CG 9.701048 115.056193 121.417214
CG 38.440416 6.732663 91.501270
CG 63.591046 114.014302 82.304374
CG 61.503125 122.993160 116.058350
CG 82.961810 112.800823 106.300872
CG 76.940427 123.701922 115.745792
CG 71.227843 115.734278 123.494213
CG 91.785570 22.010262 1.021323
CG 83.622469 115.093053 112.995576
CG 96.188570 124.281370 105.353701
CG 117.419407 112.953723 103.374862
CG 109.100469 121.599830 110.433445
CG 105.242223 93.114827 92.134498
CG 103.701803 5.740272 106.146253
CG 100.119121 2.469845 93.856855
CG 97.514577 3.246979 109.157786
CG 106.800220 10.166865 119.234668
CG 103.943073 19.762753 4.928940
CG 122.826390 19.473759 102.156781
CG 102.581410 22.151820 113.946285
CG 99.752925 38.870846 116.928196
CG 93.252106 22.754163 97.683698
CG 90.284482 16.101209 112.487363
CG 89.183786 6.015801 110.445854
CG 101.539587 27.430636 104.333174
CG 86.991672 14.603143 75.627298
CG 89.032000 43.115744 102.468628
CG 72.314309 48.506208 88.620834
CG 56.235940 38.575883 87.135736
CG 68.275108 40.127089 66.947492
50
frame
CG 55.913273 72.141448 72.051089
CG 62.005055 75.256982 71.940162
CG 50.633717 82.095547 60.318667
CG 56.595233 119.615281 62.548958
CG 51.381002 103.996951 95.945722
CG 34.199403 107.099006 109.485792
CG 49.979321 93.402837 87.552248
CG 61.848804 102.340759 59.059134
CG 45.730054 106.800574 72.950247
CG 33.855268 85.442993 68.539011
CG 23.167910 89.003648 96.303604
CG 15.942472 93.506278 68.004882
CG 28.931877 94.279799 85.406802
CG 120.929018 95.860877 87.733139
CG 23.072904 102.839194 86.096491
CG 11.513534 4.103013 106.372998
CG 5.437793 105.583800 94.419802
CG 17.915831 107.732208 105.895973
CG 23.426560 102.624871 97.457791
CG 31.387074 0.176141 97.948731
CG 34.766985 124.684693 94.486310
CG 44.253613 106.038322 1.996086
CG 35.246925 5.400933 27.147368
CG 65.045847 115.405787 115.557806
CG 69.793379 115.847660 121.923691
CG 73.869992 111.563479 2.775237
CG 81.687000 120.424865 118.517248
CG 65.436908 106.164257 115.054368
CG 100.126467 19.103860 109.234502
CG 98.378618 121.652920 102.857956
CG 95.556995 111.922919 107.083420
CG 115.598067 103.377026 103.821882
CG 108.507896 0.008836 114.662250
CG 104.564318 91.687126 105.309095
CG 103.481963 114.259967 102.628928
CG 107.404943 122.781404 93.821618
CG 96.021043 4.875525 101.773441
CG 106.417568 15.214322 97.955747
CG 88.025376 18.719690 11.332366
CG 96.637336 30.655748 118.862753
CG 98.919797 21.647999 0.331555
CG 88.925851 31.682145 5.837657
CG 94.434023 22.951199 108.447467
CG 98.303672 30.639958 92.756969
CG 78.121141 9.187868 69.925054
CG 80.657216 20.609726 93.160812
CG 65.297097 21.159926 52.684662
CG 61.207837 21.175589 74.825617
CG 58.060024 24.356781 62.500229
CG 50.108339 39.448302 84.916492
50
frame
CG 42.956180 105.183202 66.491555
CG 57.935501 107.328817 69.461732
CG 56.746117 96.122720 86.098625
CG 63.525304 88.891363 99.460741
CG 70.323115 101.316269 74.813167
CG 66.450724 109.356562 54.799556
CG 50.376075 116.298312 88.619802
CG 35.091829 97.219153 67.837614
CG 44.999971 83.343160 72.752506
CG 50.476514 103.692274 57.569080
CG 52.790308 87.490715 52.926396
CG 32.974525 100.935852 89.904678
CG 23.294304 110.862866 88.604375
CG 21.490925 3.083711 93.621833
CG 12.674552 123.042028 102.812268
CG 14.005781 102.331387 81.785759
CG 26.967044 117.340082 105.006884
CG 33.046208 121.464552 96.628888
CG 36.586108 117.143631 109.571630
CG 38.949820 109.100177 13.121749
CG 57.719557 109.795054 6.782535
CG 47.975585 121.722546 0.247857
CG 54.479675 109.933942 118.708815
CG 45.847957 108.620422 23.499337
CG 35.710061 2.153310 29.836332
CG 59.013463 112.627199 116.353633
CG 84.967588 1.608415 110.140674
CG 97.847295 107.344461 102.814477
CG 81.643310 94.218390 111.925708
CG 87.210083 102.937484 118.729714
CG 91.610294 20.704599 111.637881
CG 73.490381 19.089658 102.953588
CG 87.727539 54.851635 21.441483
CG 113.767650 95.064181 51.687716
CG 120.953279 114.671792 6.154911
CG 115.051155 17.971701 105.422948
CG 98.832764 7.167614 107.992573
CG 86.935314 3.336614 104.125162
CG 82.826195 13.517786 104.007978
CG 89.132425 13.205801 124.402631
CG 82.263743 13.175098 118.707854
CG 102.327769 24.005577 107.284497
CG 87.326532 28.166183 91.855976
CG 71.914875 32.206059 96.485627
CG 66.592125 29.839642 82.305555
CG 62.978482 30.194056 65.518303
CG 54.000156 122.243203 64.247512
CG 57.797963 8.709706 64.547301
CG 60.675770 23.347836 68.616796
CG 53.442447 2.574238 62.895613
50
frame
CG 62.843040 5.858955 85.892982
CG 41.179156 117.828976 92.823672
CG 66.067724 0.462981 81.371730
CG 62.786044 101.406587 59.631946
CG 53.273733 103.139369 71.005313
CG 64.463534 82.398458 73.366627
CG 63.330051 87.242872 39.202962
CG 60.952153 106.364244 72.698551
CG 52.164853 109.399759 60.437321
CG 38.892882 101.203703 90.997054
CG 38.419452 122.043795 77.574226
CG 57.331801 2.359283 72.473238
CG 37.441700 120.631418 74.055457
CG 52.566539 105.232492 86.176515
CG 31.377342 119.496704 93.038670
CG 45.883234 2.233613 103.323191
CG 43.227114 2.855369 104.688225
CG 38.140679 108.332022 122.469593
CG 55.270977 123.124384 14.999935
CG 57.408822 115.486298 115.916843
CG 43.594876 107.466582 17.173020
CG 48.533412 108.175364 24.782778
CG 54.281277 106.809264 13.594535
CG 44.938574 0.985957 122.710445
CG 76.580328 105.523471 97.395367
CG 66.305860 118.203331 7.961865
CG 39.911584 88.710235 15.307056
CG 70.191664 121.526737 3.551562
CG 77.640105 123.981724 112.542930
CG 73.223744 18.190737 104.565575
CG 72.496835 110.963508 117.065489
CG 93.536583 117.484359 10.171415
CG 92.402369 33.353387 63.948572
CG 80.692565 56.975407 100.049534
CG 90.287761 110.098741 20.911551
CG 88.129345 33.058159 124.464846
CG 108.029478 31.319991 110.365008
CG 96.509681 19.374693 4.588158
CG 101.828664 0.926466 95.111926
CG 83.554992 123.228809 83.445481
CG 82.462032 22.221740 74.844657
CG 60.123728 10.451583 80.833398
CG 58.764104 21.505516 97.941890
CG 63.621869 14.454875 75.220608
CG 65.093562 23.805963 88.477950
CG 48.714338 8.489296 71.121555
CG 65.277064 41.917127 97.072196
CG 55.474069 11.342986 58.910992
CG 49.339059 99.246271 62.957547
CG 69.161986 119.657478 48.987873
50
frame
CG 51.358560 118.554385 85.972001
CG 68.594224 120.445991 72.780096
CG 52.976011 108.651943 76.149202
CG 54.797349 108.489306 84.443015
CG 65.925243 101.257252 63.591265
CG 58.274735 108.784187 59.347073
CG 54.044063 106.110705 79.895491
CG 50.879201 93.612210 67.947772
CG 51.405968 102.580043 71.630151
CG 57.491831 119.303134 62.128164
CG 50.593989 110.798311 72.980032
CG 37.187853 106.359728 85.647535
CG 45.655100 117.537374 87.686535
CG 40.731985 5.271182 86.900267
CG 49.306917 120.730418 92.109623
CG 41.212032 110.942140 102.130885
CG 44.342529 115.594121 116.477892
CG 52.807485 1.709558 113.290177
CG 42.099969 112.840257 116.256138
CG 42.409321 111.000286 17.782098
CG 56.029638 116.249409 6.977459
CG 52.943574 116.484524 119.880492
CG 55.589854 113.452624 122.698888
CG 63.319457 103.313576 10.680943
CG 43.612058 110.055578 22.315615
CG 56.384062 111.458932 119.929601
CG 82.143994 3.745768 107.725773
CG 64.880294 118.096842 117.711896
CG 60.444472 111.163985 4.298188
CG 79.066512 111.667794 13.136462
CG 86.660050 23.286055 27.149963
CG 75.019097 42.574245 48.722468
CG 80.647389 49.017235 61.758455
CG 94.222506 78.643507 71.276981
CG 94.897661 90.973675 76.182553
CG 95.299706 92.976721 111.277692
CG 88.118892 116.671440 121.811119
CG 91.783606 12.074931 95.603125
CG 86.847432 25.297217 100.885466
CG 84.272114 20.652133 102.119596
CG 75.435248 5.010916 97.435475
CG 78.178408 13.914824 84.603758
CG 71.657945 15.024734 73.758316
CG 58.278967 17.836899 86.575052
CG 57.509323 20.707616 83.701575
CG 64.973285 21.625743 80.112892
CG 53.456440 116.282209 61.327040
CG 60.460251 2.489992 71.803499
CG 67.905614 21.504555 66.284594
CG 51.590125 118.724826 65.329480
50
frame
CG 62.209987 98.680773 61.881378
CG 57.618046 103.543012 76.093837
CG 57.098263 100.785387 70.538103
CG 62.779820 121.406891 69.006998
CG 50.112529 117.280594 86.601768
CG 44.868927 118.666300 85.269384
CG 52.051646 116.684628 85.565838
CG 54.173879 123.448328 61.507873
CG 53.801515 109.212709 82.983851
CG 49.034984 96.059159 69.994029
CG 55.130060 101.120608 80.186292
CG 48.058936 119.940636 77.380501
CG 54.133943 111.915666 91.356932
CG 36.348344 109.463616 102.304487
CG 51.428109 114.651647 109.209057
CG 50.545532 1.793173 100.836315
CG 49.138009 109.807154 102.212528
CG 42.633114 109.023211 119.307941
CG 47.136763 113.276332 113.508885
CG 50.924950 0.371222 107.826427
CG 50.491270 117.665176 101.676345
CG 57.245796 108.967655 2.531302
CG 49.810642 115.891358 12.006143
CG 58.085225 109.544059 121.410202
CG 66.264444 4.466030 0.232289
CG 64.183338 111.524686 0.534360
CG 58.474125 123.982274 12.473314
CG 69.646324 111.403204 9.118358
CG 88.662653 24.337432 27.443107
CG 67.760193 28.467734 62.404801
CG 67.621871 48.997585 75.594186
CG 81.688659 71.859358 72.258829
CG 88.331219 84.363472 44.427020
CG 86.945487 73.977688 52.484486
CG 81.479384 54.436026 40.236152
CG 91.401037 60.669832 37.946548
CG 77.328478 79.430379 58.440561
CG 78.340493 93.050819 88.659006
CG 65.954326 117.530866 115.177574
CG 80.987408 21.097212 100.574903
CG 79.543929 23.336551 100.387711
CG 80.886934 23.174935 104.931251
CG 74.590062 8.050931 89.615633
CG 79.346863 15.166837 81.687852
CG 64.352084 113.469502 54.579608
CG 65.488147 2.520548 77.381925
CG 64.119772 6.532223 63.116912
CG 61.185904 6.452867 79.337011
CG 53.258116 6.486093 70.453882
CG 61.020798 32.566658 87.526128
50
frame
CG 63.319240 90.316598 63.463936
CG 53.958390 93.833939 56.607958
CG 62.112889 117.345409 73.440669
CG 44.112388 103.539940 80.041460
CG 45.910512 122.947870 82.001252
CG 59.514842 1.935173 82.481121
CG 48.417292 124.292039 72.998826
CG 46.275890 116.811774 106.282588
CG 51.139697 119.113108 76.510668
CG 50.168962 122.333252 95.171576
CG 48.055322 115.745541 90.646649
CG 59.803839 94.617084 95.303201
CG 48.068402 103.645102 96.287226
CG 71.340908 109.725649 94.493616
CG 44.040262 106.966713 98.484196
CG 44.671795 99.710580 118.174950
CG 49.815464 120.565260 109.106507
CG 51.674732 118.986965 89.381563
CG 57.286500 119.865727 95.622858
CG 55.503935 103.507719 97.180045
CG 46.350218 112.084553 0.250444
CG 50.322043 124.429944 106.614293
CG 65.891544 122.573929 100.869936
CG 55.192022 8.365253 123.458973
CG 66.104498 111.357741 119.606830
CG 71.090364 7.167356 21.842594
CG 70.222678 6.271820 42.990316
CG 72.355918 46.302891 76.143732
CG 57.495400 47.740481 83.806086
CG 79.128182 82.452533 60.144477
CG 87.427195 77.130607 46.864020
CG 79.598829 56.696308 50.140831
CG 70.486064 50.830359 64.651876
CG 72.191832 50.910601 32.394451
CG 76.722873 77.369743 38.145135
CG 58.798947 79.053319 34.356291
CG 71.470954 59.797660 32.369192
CG 70.430478 71.449105 47.645715
CG 82.472997 76.950966 45.521142
CG 66.485924 85.574601 91.327947
CG 72.211378 122.667866 102.605256
CG 73.717043 7.527980 90.194772
CG 78.878815 9.999278 92.326382
CG 79.700087 117.661155 80.311837
CG 87.978091 10.473556 91.525878
CG 71.206343 117.499716 62.281865
CG 68.905233 12.825014 86.581132
CG 62.876952 27.240505 75.835129
CG 61.075619 21.090075 95.075659
CG 61.742554 14.250679 78.656775
50
frame
CG 48.946345 111.049409 68.395400
CG 57.878476 103.582606 74.002480
CG 43.419403 97.893231 69.852763
CG 56.063207 112.560785 70.847244
CG 62.106966 111.622770 64.370331
CG 40.997385 106.308637 86.713219
CG 49.588468 121.660051 94.852562
CG 53.755144 1.033827 89.802957
CG 43.980873 3.517529 105.208535
CG 54.383159 118.874571 112.794434
CG 53.612427 115.890929 102.707109
CG 56.492041 118.932255 108.762611
CG 56.838841 106.826569 100.550714
CG 47.979703 91.616588 107.308094
CG 61.344357 104.166674 99.656956
CG 66.259139 110.316594 78.529151
CG 53.538370 105.616769 90.417736
CG 58.955350 104.746190 104.298168
CG 48.342697 110.222661 109.021757
CG 50.928645 124.478106 104.488904
CG 71.691066 124.598688 83.453412
CG 59.665956 121.699577 97.632690
CG 55.112595 120.057291 115.331370
CG 71.793418 6.123318 0.154665
CG 63.631451 22.431076 35.664642
CG 62.182703 51.008000 64.284694
CG 71.622992 60.938037 68.690967
CG 71.965288 80.416664 64.585734
CG 78.758355 72.798013 55.744176
CG 76.721585 56.913194 64.170067
CG 62.188760 50.458814 65.719158
CG 67.479622 64.171503 31.391547
CG 73.112495 64.691477 26.182391
CG 57.180799 69.764287 47.419387
CG 52.375661 54.307285 48.816993
CG 64.173348 58.106279 46.681363
CG 68.723651 82.215983 37.843492
CG 59.726141 70.957065 26.724797
CG 65.806287 67.131351 34.926315
CG 73.188968 64.829563 25.228475
CG 74.950092 51.346066 34.193490
CG 70.894994 62.324147 69.153513
CG 79.748440 108.701305 88.825191
CG 70.916639 1.026073 88.761691
CG 73.888560 18.451325 103.592231
CG 83.691008 32.195495 104.868289
CG 80.177184 17.337495 99.657622
CG 75.209365 0.390481 83.349944
CG 77.733406 20.939060 79.700279
CG 64.000516 14.305379 87.890122
50
frame
CG 41.930096 112.411963 81.441857
CG 42.686927 1.702760 79.226555
CG 55.620268 110.421531 67.079680
CG 53.375096 104.467973 73.956989
CG 41.224994 96.574810 91.624482
CG 57.698271 115.753423 75.609354
CG 54.972761 109.216300 95.456557
CG 47.041140 112.492580 95.494364
CG 59.439947 113.469184 118.401033
CG 52.978557 121.764445 97.830805
CG 56.286358 119.587545 121.850833
CG 43.649351 116.019516 113.658699
CG 62.657816 115.284043 112.102493
CG 55.656529 124.830821 91.046972
CG 64.720220 103.476949 90.545632
CG 57.309303 98.779964 100.884650
CG 67.674492 95.682410 96.014317
CG 59.313357 113.731030 93.363842
CG 70.400588 113.393644 81.622401
CG 68.196446 119.454874 98.563970
CG 51.401785 121.254205 108.579723
CG 73.881609 5.481540 1.826841
CG 72.278939 31.236232 21.474396
CG 61.026225 38.806171 44.083161
CG 64.754721 77.219492 58.957435
CG 73.238368 69.587993 37.794571
CG 68.595889 91.863438 46.118774
CG 68.849801 50.353866 44.201382
CG 74.966240 65.272632 48.758358
CG 57.102856 58.475375 37.429401
CG 65.850986 66.274708 30.305075
CG 54.316361 63.589199 67.097570
CG 42.933958 62.774917 52.473193
CG 62.264201 65.285395 42.408257
CG 65.270025 71.126725 29.287201
CG 59.569923 66.307731 37.389180
CG 45.254075 52.517931 46.562646
CG 70.059668 55.758260 33.128955
CG 58.035027 56.341434 25.175408
CG 66.438518 50.989080 12.391510
CG 69.336906 57.932023 24.416341
CG 76.032178 68.990871 24.623418
CG 64.547398 54.293913 40.591929
CG 78.650008 102.289533 94.106975
CG 70.923860 108.219528 86.273687
CG 72.955151 4.248289 111.337190
CG 80.893767 20.126000 92.383030
CG 87.455181 28.282706 118.589423
CG 79.461277 1.634389 93.849338
CG 94.544919 11.501695 85.829976
50
frame
CG 48.875093 2.289217 78.705982
CG 40.564691 104.872815 78.946970
CG 38.939650 121.751101 104.075785
CG 39.799245 120.033994 91.904117
CG 55.339661 120.091395 87.145579
CG 54.660658 101.632393 100.301450
CG 50.988961 97.671225 96.041362
CG 62.367342 104.735017 104.578207
CG 57.348631 103.744435 89.059950
CG 48.174021 106.340808 115.480395
CG 55.550317 115.163039 106.367327
CG 67.184712 121.830131 92.732286
CG 50.048081 122.167842 102.023998
CG 66.203101 113.691039 112.162201
CG 56.032529 118.052597 109.642287
CG 60.768061 120.457137 102.959032
CG 70.089173 122.025671 89.428066
CG 73.687980 106.718393 88.967701
CG 69.608260 114.280351 107.203883
CG 76.587820 118.652324 112.643184
CG 80.727741 21.886178 28.248833
CG 61.464511 46.131360 43.158688
CG 64.866972 66.535516 48.759209
CG 74.519009 85.606685 40.883688
CG 77.801074 71.726373 18.460813
CG 66.252235 60.764967 32.823127
CG 67.018696 49.144996 26.610590
CG 62.183047 72.986793 18.842975
CG 44.556234 66.330887 20.846107
CG 57.065563 71.329441 41.193947
CG 49.846239 71.704324 48.294881
CG 53.528929 62.793700 31.283851
CG 64.252715 70.206758 45.684348
CG 49.965697 60.490762 47.099525
CG 44.368157 61.350498 54.183190
CG 56.860152 59.918454 29.413079
CG 69.408219 47.533258 12.033021
CG 51.442097 45.996289 29.206069
CG 62.439914 44.940186 29.143171
CG 62.187994 60.152306 45.409848
CG 56.282035 70.403740 33.115940
CG 64.073905 79.035901 38.863329
CG 71.447419 81.787658 37.545337
CG 69.065357 54.305898 23.042733
CG 78.147282 68.028383 51.991391
CG 78.683719 84.452445 74.052054
CG 74.618709 96.738808 102.203801
CG 85.676139 0.690721 91.130448
CG 102.897395 20.225014 112.750623
CG 99.257197 12.151810 121.575447
50
frame
CG 36.640284 110.027080 99.321282
CG 49.039892 5.617954 101.950336
CG 44.951976 123.419549 89.008365
CG 47.665573 111.883871 109.343570
CG 46.156511 115.294875 110.349870
CG 42.862103 112.750136 111.999768
CG 60.178683 116.284181 95.009220
CG 52.108030 95.993837 103.176190
CG 48.965378 102.194568 99.507300
CG 75.420941 104.372448 87.267028
CG 56.766977 104.813619 74.538491
CG 59.285167 105.098709 113.978501
CG 63.807295 114.326037 102.430357
CG 58.950129 120.272285 103.237587
CG 64.998726 11.030230 102.500373
CG 78.976880 2.298329 98.951341
CG 60.071341 5.462650 122.389906
CG 75.296487 12.366689 8.375076
CG 79.602981 27.320820 31.030665
CG 68.199445 44.852373 46.787629
CG 77.970523 57.550929 34.524514
CG 83.289895 70.022696 26.463511
CG 82.224609 60.765931 21.811915
CG 70.101303 55.800675 20.923577
CG 62.114952 44.155193 26.121287
CG 64.803982 78.734654 14.525185
CG 54.203621 60.575572 1.968080
CG 48.796847 70.695846 27.887294
CG 53.543688 63.812101 28.101446
CG 50.345356 73.625366 14.778256
CG 47.572562 65.850948 29.056029
CG 54.033797 75.056304 30.357609
CG 47.388849 62.021603 35.676186
CG 52.294454 62.238128 26.733710
CG 65.411448 45.158806 21.485296
CG 47.684927 38.047240 39.914750
CG 52.401575 59.821532 45.346880
CG 57.941906 62.051961 32.369134
CG 61.166214 69.187810 34.524266
CG 51.816657 71.136342 42.128733
CG 66.373732 66.041041 49.132445
CG 55.480119 49.215989 43.917084
CG 67.358807 74.435370 43.058020
CG 67.388617 73.826184 33.914339
CG 73.521909 69.892912 43.239673
CG 83.198223 55.119248 16.723104
CG 100.662627 70.202574 56.581231
CG 92.063988 64.950806 86.116827
CG 89.986214 101.233848 117.058799
CG 92.636140 4.643186 117.627791
50
frame
CG 47.937864 3.378100 116.497767
CG 39.145393 113.223178 121.371304
CG 48.770221 104.609035 117.230684
CG 51.037692 124.964098 109.485794
CG 46.157447 112.625697 106.583668
CG 52.463710 115.499151 101.135205
CG 39.534596 109.984380 120.643200
CG 53.594523 122.149731 88.075409
CG 69.300458 112.114911 89.969926
CG 48.899343 100.026028 92.001020
CG 67.762148 100.362186 113.729908
CG 62.436592 106.738760 80.416445
CG 72.384671 113.591678 87.339977
CG 71.081887 0.728621 96.839835
CG 74.338756 118.953583 114.432228
CG 62.355268 19.568446 19.395522
CG 84.952362 39.572148 38.588056
CG 68.033952 69.497238 60.218687
CG 68.059278 75.310935 46.401175
CG 85.973874 84.373833 39.615017
CG 75.183198 66.410959 24.883519
CG 79.240299 45.804872 22.024587
CG 72.656046 43.969440 10.621446
CG 71.523143 48.456417 2.691340
CG 60.861939 69.957894 6.325047
CG 50.137218 44.923962 12.725827
CG 51.088779 78.319974 35.797353
CG 54.734870 62.216471 6.239313
CG 56.223835 72.344662 9.707809
CG 45.709633 61.937150 23.125621
CG 55.161004 64.872852 5.889184
CG 45.368307 59.476950 17.197177
CG 49.525490 50.298021 1.786110
CG 56.286058 47.809395 22.489386
CG 47.057593 62.750617 29.769779
CG 62.072359 72.115235 28.617152
CG 50.808393 60.923890 42.325641
CG 54.398900 68.573448 55.715424
CG 48.192610 74.555563 61.796557
CG 62.635757 55.849210 33.810015
CG 59.731507 64.574155 40.286875
CG 67.642229 78.009683 41.196900
CG 61.130741 42.162787 44.833842
CG 76.319946 60.386501 55.576666
CG 85.407904 66.347888 33.926581
CG 85.392970 70.863798 71.324772
CG 81.610266 65.547829 45.439994
CG 92.773783 72.446753 53.589208
CG 87.276155 43.535634 48.692950
CG 83.351370 23.837286 74.842925
50
frame
CG 49.819984 108.423251 13.517244
CG 54.131566 117.099781 122.403336
CG 46.398386 2.539225 8.627682
CG 41.504723 105.176876 117.103775
CG 49.921937 112.768996 117.700939
CG 53.915039 122.233929 100.165135
CG 60.366823 116.235544 83.935157
CG 53.406700 112.787295 108.312491
CG 46.464994 111.657187 117.696917
CG 56.711121 0.331733 99.844144
CG 68.861745 122.806851 85.713155
CG 72.519398 120.254746 93.391093
CG 68.521130 113.760866 120.339242
CG 75.135531 124.997509 4.585247
CG 79.236345 31.098944 29.058220
CG 74.856664 59.577968 50.315088
CG 69.616190 71.634604 41.643611
CG 79.329038 77.678608 35.114075
CG 83.016503 80.011460 36.093309
CG 69.845226 60.287271 24.827646
CG 72.157484 62.189435 28.051907
CG 64.476247 67.532134 14.396871
CG 57.999104 69.956395 12.744028
CG 56.253941 53.205951 18.644802
CG 62.679588 56.018748 13.162206
CG 63.260526 58.001855 7.504629
CG 62.024932 54.349926 123.594901
CG 51.555082 56.158167 16.998370
CG 46.068402 62.844931 12.583156
CG 58.682521 55.894298 124.095482
CG 49.703268 52.269840 0.454002
CG 53.625729 38.494271 123.657816
CG 56.524109 65.417335 15.584142
CG 47.426877 71.203825 12.632731
CG 46.266972 68.398710 25.508363
CG 49.871641 73.818055 39.657074
CG 55.194804 79.357505 38.854534
CG 56.847910 66.108025 35.489666
CG 60.368828 51.133980 35.950340
CG 60.886548 76.830965 65.622842
CG 53.280829 57.147554 51.185874
CG 74.578303 53.080480 47.141834
CG 84.941184 75.387577 42.511540
CG 80.997639 61.696679 58.246660
CG 72.158336 47.265249 73.015601
CG 80.849557 66.646963 64.276892
CG 75.451188 44.011871 51.187262
CG 71.101100 19.866068 41.899295
CG 78.881003 121.532353 14.069683
CG 86.029642 114.369248 104.109820
50
frame
CG 52.982572 113.530222 8.591066
CG 50.510615 107.432421 18.849339
CG 51.898511 107.412031 123.298814
CG 59.875583 122.748250 124.279231
CG 57.045861 2.156116 107.403755
CG 46.110590 101.872623 124.256610
CG 54.758447 118.215048 121.115266
CG 57.541337 120.588210 107.476832
CG 62.571496 7.700281 81.140051
CG 76.449356 2.595997 112.276835
CG 48.857206 5.938782 124.984914
CG 66.423353 18.346860 34.392985
CG 76.257224 46.445724 25.165267
CG 73.927986 57.796335 50.148465
CG 65.040163 67.944393 43.823948
CG 89.811941 54.570345 13.211654
CG 78.222408 64.062960 24.319402
CG 76.951982 49.705189 14.046038
CG 68.806056 50.168098 15.829313
CG 62.892665 66.636427 18.428776
CG 60.694541 77.786080 17.583720
CG 51.291872 73.860760 26.456376
CG 61.103510 68.172711 30.318177
CG 58.428944 82.248175 16.792519
CG 56.269962 51.720914 10.484104
CG 59.648559 66.525114 16.128928
CG 56.424241 40.173314 122.893236
CG 64.957164 53.057851 119.542981
CG 62.699569 29.111566 115.491417
CG 52.225590 41.598011 122.063729
CG 53.181328 54.286788 16.488567
CG 58.512139 80.558654 5.831248
CG 45.332394 62.802231 16.682833
CG 50.274246 67.707211 21.766345
CG 63.395359 78.727064 21.532837
CG 43.959921 63.965905 17.867844
CG 54.422202 60.015992 23.115922
CG 56.606932 74.152032 41.447195
CG 63.571404 74.865957 38.972450
CG 64.832644 52.077237 35.076990
CG 92.169731 67.432547 49.761818
CG 68.004675 62.444490 74.673747
CG 67.128353 57.340852 83.608475
CG 73.576215 56.480844 54.947661
CG 78.484592 63.424446 54.754589
CG 62.969973 114.860140 22.933068
CG 72.622452 110.869353 37.177985
CG 75.078745 103.609289 114.021706
CG 72.967736 121.546851 111.898430
CG 65.951992 124.262348 114.866368
50
frame
CG 51.656096 108.401919 9.741789
CG 55.791816 117.210929 122.767066
CG 55.501643 120.182809 3.234985
CG 48.541835 106.911238 1.409336
CG 52.027816 107.989475 3.787997
CG 61.246692 3.661495 110.551863
CG 58.439004 123.287155 99.935575
CG 60.142069 120.699094 113.213713
CG 56.958064 121.728834 8.546856
CG 54.647962 10.728788 1.358201
CG 76.618267 25.926073 1.742668
CG 70.075806 33.452036 7.525972
CG 61.054773 32.806508 27.161543
CG 73.418687 39.153892 18.173879
CG 82.996495 47.984902 21.387005
CG 68.274340 58.874868 37.464154
CG 71.960383 54.293361 24.061362
CG 72.580448 64.156773 21.326602
CG 69.906022 70.388158 20.035757
CG 65.476367 61.914100 19.648593
CG 62.231052 59.434971 23.465875
CG 64.475907 70.475970 17.503392
CG 55.963072 70.582811 12.894102
CG 56.749925 58.860051 20.264223
CG 59.618783 66.488358 15.607503
CG 59.409329 54.081349 2.263389
CG 61.499943 53.990348 5.102690
CG 54.820968 44.773273 5.327746
CG 54.555665 57.665237 7.362393
CG 61.519057 60.156873 4.551107
CG 55.497913 53.169816 123.757863
CG 49.442960 47.788793 13.532483
CG 59.184723 69.417995 15.024445
CG 53.460464 70.570869 13.709090
CG 45.030088 60.314701 20.062247
CG 59.988392 72.120502 30.626380
CG 58.464650 76.037941 32.375147
CG 59.532311 59.591686 25.294134
CG 67.867867 59.630366 38.547444
CG 69.261318 73.598732 57.930776
CG 57.020822 61.125547 59.538656
CG 75.320534 58.266491 46.039501
CG 80.345290 68.038843 44.117126
CG 68.704286 85.828676 55.350881
CG 66.380686 91.600370 46.656967
CG 78.111927 73.615527 35.078216
CG 72.661638 93.469056 8.928110
CG 66.664384 118.765403 17.802049
CG 68.563903 113.774929 9.632171
CG 74.059895 113.563146 116.798807
50
frame
CG 57.997032 122.889049 114.818766
CG 50.634246 110.004362 122.205959
CG 50.962268 108.082522 6.614767
CG 58.246157 123.379289 115.066620
CG 58.176161 120.980710 117.128941
CG 59.260398 119.483057 119.590154
CG 57.419225 117.720594 16.449498
CG 58.493687 15.759839 8.862911
CG 69.111533 20.195904 16.713075
CG 61.024581 26.539429 14.568080
CG 63.111204 24.449038 28.438164
CG 63.952536 29.468702 118.043258
CG 81.730951 28.445320 116.013247
CG 65.507027 31.202702 121.367879
CG 62.824967 23.330182 8.804073
CG 61.957028 43.398005 18.546953
CG 69.848575 56.437930 23.289722
CG 59.079342 68.564969 39.409831
CG 65.255446 63.628393 31.338650
CG 72.116341 67.681318 22.660782
CG 68.359800 63.312397 13.818590
CG 66.992024 46.838359 12.600619
CG 64.701416 52.870171 10.301968
CG 64.417320 49.025927 1.335787
CG 59.834073 62.427967 5.987548
CG 54.540140 48.027219 13.378299
CG 55.184509 76.034668 21.758422
CG 56.418756 69.478993 15.531233
CG 55.685327 73.415638 14.717148
CG 50.788875 55.700943 18.760566
CG 59.617412 68.245999 11.762923
CG 60.014494 56.009627 8.281580
CG 53.461117 47.657288 4.804456
CG 58.190232 51.339804 21.731158
CG 60.200526 67.949863 25.371688
CG 63.459774 64.265949 22.857913
CG 61.747717 58.586334 34.120232
CG 70.562937 71.978589 49.412156
CG 54.928899 65.152772 51.467859
CG 64.492108 61.508033 35.868237
CG 62.682391 67.064939 31.129916
CG 65.168301 94.788931 35.880632
CG 57.367721 95.702494 23.455386
CG 78.081917 80.723049 18.454697
CG 75.964527 92.652250 4.663668
CG 69.331115 95.371411 39.153516
CG 65.167435 92.715099 29.203461
CG 76.175927 79.102361 33.801278
CG 73.982038 88.228785 19.441703
CG 69.494807 103.733865 39.235861
50
frame
CG 46.451065 103.710009 113.559393
CG 58.961884 123.936788 110.561198
CG 63.040758 5.122758 97.536441
CG 60.722042 121.000925 1.284303
CG 60.739754 4.471620 12.863867
CG 55.635890 5.426859 25.794781
CG 66.795609 26.322866 22.831762
CG 64.794155 17.276361 31.422919
CG 57.646303 26.774733 20.215864
CG 75.201832 27.870414 13.413991
CG 65.033189 25.564239 114.160781
CG 66.251633 19.199072 18.693688
CG 53.439435 22.193355 4.341924
CG 61.348569 28.035548 0.349312
CG 60.078748 47.049118 120.709932
CG 63.892636 34.052657 119.312836
CG 50.241556 37.902953 19.604151
CG 67.075843 38.109874 10.821651
CG 66.127038 51.551134 20.102472
CG 59.507057 51.515439 28.003867
CG 69.582449 51.949850 19.237209
CG 68.998403 55.555811 7.937731
CG 73.424413 44.895511 5.866973
CG 64.279961 52.787601 10.450235
CG 60.371401 46.098786 13.887872
CG 62.240460 83.048875 18.287184
CG 53.736763 61.937506 12.348366
CG 53.046024 74.612930 26.896642
CG 57.125708 68.882050 25.887943
CG 58.198700 78.205076 16.331150
CG 51.921817 57.834847 26.125572
CG 58.886753 67.583015 22.619354
CG 63.842120 63.617581 28.646860
CG 67.025048 54.669379 15.045135
CG 73.950384 44.073333 20.909682
CG 62.491307 49.411139 40.830944
CG 65.038967 61.096289 41.381076
CG 57.436734 60.343760 33.252741
CG 67.588604 73.733938 23.303909
CG 57.180143 88.491682 26.090519
CG 65.302241 105.122759 16.843819
CG 57.863791 81.023119 3.054670
CG 67.933465 88.334931 3.792191
CG 56.846462 107.984998 6.580231
CG 61.698158 89.240915 25.581642
CG 71.286930 92.477129 123.178029
CG 81.022992 83.702529 33.162105
CG 68.640264 84.100833 43.785297
CG 68.695626 80.426868 69.313480
CG 75.081249 53.221272 57.006133
50
frame
CG 65.422826 8.142710 98.401149
CG 55.946364 115.823430 110.649445
CG 55.890099 122.669954 8.473006
CG 58.596415 12.958419 10.870756
CG 66.498418 25.105648 12.305313
CG 71.874848 31.736347 26.756199
CG 59.519085 26.137876 21.390531
CG 68.370839 26.555046 18.407608
CG 71.037683 23.321225 7.175067
CG 57.187764 12.928141 18.969152
CG 59.290158 22.599333 16.493056
CG 61.804492 30.459696 3.190419
CG 52.784095 39.221335 7.449792
CG 56.486110 31.155645 13.702260
CG 50.678881 26.070298 12.389226
CG 56.065001 32.904298 4.298894
CG 66.785977 33.029911 106.038753
CG 58.083545 24.131678 115.717204
CG 56.106472 21.686612 1.548031
CG 67.874600 26.369840 120.046470
CG 63.406889 35.133043 12.334500
CG 63.133224 50.176266 25.531047
CG 60.074518 59.479705 23.963145
CG 67.837994 72.460441 24.483689
CG 68.183799 67.891400 17.209486
CG 60.530926 54.850353 17.858113
CG 65.370576 59.460332 24.040915
CG 63.025322 70.855051 14.945387
CG 51.818198 61.600946 22.106187
CG 59.303387 70.872768 36.444888
CG 65.099960 76.426677 33.007354
CG 63.581383 67.376606 33.632826
CG 71.028573 60.486975 35.113540
CG 66.922604 63.432544 46.501496
CG 60.387084 59.232968 45.116883
CG 69.599770 55.143948 22.187322
CG 70.096055 58.296279 11.068668
CG 60.022566 71.620865 11.833919
CG 64.252145 92.564553 8.724520
CG 62.746578 88.367486 123.575157
CG 60.599342 83.103150 122.213728
CG 60.639819 106.501222 2.035283
CG 61.031813 99.365687 11.802258
CG 59.068268 82.706438 0.990754
CG 67.628549 90.620939 14.072130
CG 61.027849 85.356935 36.871738
CG 59.907931 79.348368 43.573938
CG 73.387796 68.416426 38.283290
CG 79.168577 46.365032 56.165880
CG 68.537174 66.030189 73.259453
50
frame
CG 64.403731 9.475086 8.485614
CG 67.666160 27.050950 4.061208
CG 67.222750 26.574466 10.296878
CG 67.798675 27.696421 9.396824
CG 58.112387 20.296599 18.439642
CG 64.463965 28.710450 120.265290
CG 75.345722 22.398992 3.709679
CG 61.618689 27.092243 5.572065
CG 58.854603 19.921675 23.679309
CG 57.950937 35.515717 4.759291
CG 57.941977 32.235047 25.644713
CG 44.387083 29.518222 16.505385
CG 63.540693 22.651017 22.036410
CG 51.805781 35.058784 5.215117
CG 62.204777 24.925786 122.149632
CG 52.489697 20.332382 3.334718
CG 53.659046 10.130523 1.208744
CG 57.159501 23.425178 115.655638
CG 66.276493 18.553710 97.027367
CG 56.558787 23.895616 119.774297
CG 52.101981 33.387273 2.427592
CG 61.756059 38.364817 8.802797
CG 61.738875 59.235044 25.861477
CG 58.203552 48.299788 27.769386
CG 62.775637 71.495267 34.678626
CG 70.869743 60.383573 24.617240
CG 65.520507 71.585454 23.638823
CG 65.349330 45.985712 31.179212
CG 77.612958 72.442971 32.043664
CG 67.259291 56.136231 28.812944
CG 68.937183 63.586980 35.713259
CG 71.017849 66.027714 55.006141
CG 59.234689 72.732234 49.715375
CG 89.988421 24.915393 113.350091
CG 69.222319 78.532010 22.082972
CG 63.233488 88.200979 18.995081
CG 57.579059 90.385727 11.287359
CG 78.143785 86.943276 114.701465
CG 59.874282 65.051741 111.076559
CG 65.392377 85.576083 115.981459
CG 59.749126 90.934565 0.980475
CG 65.401988 82.680278 3.874614
CG 57.569570 84.615458 3.450598
CG 69.546762 86.852400 39.078761
CG 55.779885 81.907859 27.933390
CG 38.425701 102.898687 93.513588
CG 65.879604 56.602594 34.562675
CG 61.093925 59.802106 67.969514
CG 58.085813 74.998205 42.202517
CG 76.917123 60.531755 34.694354
50
frame
CG 70.016793 48.556039 39.980688
CG 74.196274 41.650973 36.138548
CG 70.303961 38.332368 10.038818
CG 69.878732 34.877750 124.266990
CG 77.419910 31.166825 113.722901
CG 59.392513 14.885641 3.350503
CG 51.687013 24.327451 7.012505
CG 59.043284 27.596326 123.825720
CG 56.763225 40.682258 3.701309
CG 56.032435 34.843128 21.575119
CG 53.824047 27.113403 9.061761
CG 62.752492 32.093953 19.666474
CG 51.011938 25.342529 5.613740
CG 55.692494 9.684513 9.338155
CG 55.041967 16.085184 10.778326
CG 61.412830 16.520934 114.307119
CG 56.091896 21.069482 119.458048
CG 55.185751 13.186117 1.096699
CG 45.794558 28.985882 14.570661
CG 51.840287 36.261696 124.305502
CG 65.736555 38.222362 114.698234
CG 50.589706 33.547754 124.121524
CG 56.755203 28.548364 5.364395
CG 63.620931 43.673937 13.610660
CG 60.882338 39.750635 25.550900
CG 61.330506 60.708452 43.478155
CG 74.021123 59.639621 42.084535
CG 79.092433 70.567494 39.347757
CG 75.661395 52.420921 39.086418
CG 81.405404 57.953205 47.595636
CG 71.872099 57.634201 50.424626
CG 65.360185 62.233421 26.149632
CG 68.279317 64.116664 39.894508
CG 52.216379 27.460570 108.576545
CG 82.142685 102.457274 3.059845
CG 80.460046 95.579023 121.560327
CG 73.376599 89.474805 118.692089
CG 53.866862 91.553399 3.866601
CG 67.351352 99.707527 2.710067
CG 68.261787 74.947145 124.652884
CG 67.494096 68.679557 122.370869
CG 63.537045 66.432240 20.457070
CG 63.677021 73.411107 28.274639
CG 44.683354 87.825692 11.178027
CG 53.900421 96.329752 29.629989
CG 65.274683 84.285547 110.920680
CG 62.013046 61.237035 57.943389
CG 63.673950 59.508684 24.300002
CG 65.749980 64.399528 29.493227
CG 48.053434 70.982669 32.317009
50
frame
CG 80.883093 69.109588 34.850622
CG 70.892542 55.984576 26.937703
CG 78.233259 50.224650 27.028213
CG 69.000706 33.522230 24.811989
CG 57.821478 36.829143 7.934033
CG 67.871968 44.030195 1.735825
CG 60.080201 41.654356 115.655604
CG 51.633339 30.442422 17.648272
CG 51.829376 26.100557 123.509061
CG 58.586471 22.885049 1.136111
CG 56.491908 33.964571 121.919750
CG 59.153537 14.243599 124.883630
CG 53.914530 18.488243 4.144777
CG 65.186662 19.934508 3.505699
CG 50.835264 15.684396 122.843848
CG 52.620633 11.773474 17.454637
CG 52.807265 28.414019 15.287334
CG 51.808427 37.442200 5.949492
CG 56.691969 34.308808 5.826985
CG 54.183216 25.231945 8.162056
CG 42.589199 24.298912 19.433901
CG 61.202990 37.672664 4.618361
CG 60.815397 28.704031 119.591692
CG 55.679981 35.670896 12.743936
CG 68.057177 29.855109 14.701152
CG 72.838184 38.436899 22.881567
CG 70.110633 32.523865 42.936768
CG 74.255929 58.334849 55.951570
CG 71.370829 55.352370 58.587101
CG 71.884862 69.077146 41.255441
CG 75.647819 57.920284 31.459488
CG 75.617447 51.323205 38.676294
CG 70.977066 42.679553 20.995659
CG 15.802354 8.605438 87.502095
CG 90.223540 124.730720 110.593748
CG 79.330429 113.849250 118.660951
CG 84.450913 109.423050 123.145876
CG 80.099769 88.430871 4.056069
CG 74.053764 84.430186 10.531546
CG 57.394429 81.761214 28.989642
CG 65.489006 79.127338 34.606681
CG 53.268145 84.885426 7.347877
CG 55.875737 80.566390 14.176118
CG 57.779317 63.572089 12.552333
CG 48.507105 57.239549 5.651423
CG 77.710803 104.479717 10.927966
CG 73.368534 56.001399 8.140968
CG 54.568063 77.002684 33.409172
CG 48.696554 57.449271 42.767790
CG 55.530518 62.878134 25.101002
50
frame
CG 75.157556 53.108993 12.027311
CG 80.191884 64.234933 22.242350
CG 64.365100 61.945063 32.107773
CG 68.037077 71.547638 25.770474
CG 65.654268 58.488535 38.671494
CG 55.959124 50.069311 27.398493
CG 62.562144 37.146421 17.426466
CG 65.879956 42.472618 111.553525
CG 62.633731 28.793074 123.901909
CG 51.980288 19.678616 111.283785
CG 57.597553 6.237518 123.135783
CG 52.661310 20.952172 109.210732
CG 65.471804 18.366610 117.501162
CG 45.493604 21.705053 2.897920
CG 60.188955 29.205044 15.441509
CG 51.638182 44.587970 13.554749
CG 51.461340 25.648669 11.515454
CG 52.893351 24.802558 25.571312
CG 51.689731 22.928256 14.742034
CG 56.056801 35.989493 16.733462
CG 60.610144 30.899269 7.277095
CG 53.887518 18.890174 22.191911
CG 55.715380 36.048929 35.428400
CG 72.311189 22.542543 10.805838
CG 67.263901 33.729060 17.460899
CG 67.834275 21.917006 25.036627
CG 67.518896 41.699461 26.406225
CG 62.569598 20.813193 24.813637
CG 71.233065 49.321535 29.544403
CG 67.343796 38.035776 43.410717
CG 68.720808 46.741296 32.489103
CG 73.814435 49.467623 25.667345
CG 78.251424 46.317079 29.355980
CG 122.317048 85.029178 65.710356
CG 71.202989 7.473367 2.643856
CG 92.408005 3.924167 121.326849
CG 84.851808 113.950038 6.370232
CG 88.596760 110.592294 16.512452
CG 74.190761 88.065462 29.324621
CG 75.744244 99.687770 12.815342
CG 53.624573 97.502123 16.427471
CG 59.323555 77.182393 29.081274
CG 49.772403 62.058604 1.021795
CG 57.893152 59.842836 113.240605
CG 48.245983 46.482528 98.540134
CG 85.196032 6.698195 25.719363
CG 48.474219 68.770215 106.674971
CG 70.529803 49.125878 111.607820
CG 64.153861 66.792608 121.695530
CG 57.548950 59.041890 41.931281
50
frame
CG 65.144500 60.422272 20.314357
CG 64.717045 61.711123 15.202628
CG 68.909992 68.128272 15.938128
CG 64.765796 70.485003 31.532997
CG 68.696912 68.592509 27.286016
CG 69.572105 61.183963 20.590212
CG 64.564753 53.424228 32.157608
CG 59.875591 32.019645 14.316129
CG 63.875268 26.637046 1.310875
CG 67.096542 33.051132 114.319954
CG 61.092450 24.554737 107.325441
CG 52.908984 21.374863 0.987947
CG 46.994324 24.380148 3.371706
CG 55.718561 38.559908 123.801622
CG 52.969839 35.256533 4.181710
CG 53.781543 23.825150 7.251045
CG 56.738319 34.055590 20.498749
CG 55.545197 32.969889 13.848224
CG 55.953566 29.701431 25.140687
CG 54.123013 16.621829 29.898749
CG 64.340954 30.064694 34.927025
CG 66.776282 31.739747 25.498466
CG 71.186217 20.640736 21.446092
CG 59.765780 23.314346 43.770856
CG 59.070665 28.837109 40.419625
CG 60.254034 27.549170 17.144617
CG 65.440099 27.126247 5.360437
CG 66.506179 26.500546 9.185781
CG 60.240306 11.790448 3.572921
CG 68.420848 15.078263 3.615206
CG 75.502722 30.005448 30.913176
CG 80.165318 32.656279 36.262340
CG 93.009091 51.653175 47.466238
CG 85.430658 59.485707 47.648931
CG 76.600212 102.829909 9.244253
CG 67.516112 116.374659 23.956705
CG 71.260013 118.777922 25.678096
CG 73.592571 3.951496 11.913050
CG 75.666385 12.126942 4.077482
CG 77.205600 98.951030 16.588786
CG 72.702997 72.038464 120.591267
CG 69.249925 72.614785 108.251762
CG 60.544346 67.374060 113.696822
CG 49.473093 63.014094 123.382853
CG 71.082538 75.339339 117.606852
CG 56.948545 56.108794 20.096840
CG 75.043282 42.626553 103.128957
CG 51.648649 47.677310 116.787172
CG 64.359441 56.114803 112.781118
CG 76.675176 57.233688 73.931312
50
frame
CG 57.834677 77.218649 20.715663
CG 52.706121 67.926812 27.297280
CG 65.278492 64.654455 19.666191
CG 69.052621 50.750963 6.847913
CG 65.712455 58.212931 6.549016
CG 69.343372 54.453112 21.610370
CG 69.270681 54.577186 0.543557
CG 71.219456 54.770705 28.861814
CG 62.439060 52.057386 15.660102
CG 59.727171 32.303065 28.661554
CG 55.057132 50.597680 14.921636
CG 67.352858 47.238130 0.483941
CG 54.005100 44.707991 120.851222
CG 57.907227 21.987133 7.935663
CG 46.675869 26.482080 2.710294
CG 58.856184 31.502555 7.639159
CG 56.126388 32.323407 9.455181
CG 57.752409 23.175503 19.628687
CG 66.550890 33.515541 32.776925
CG 70.948537 35.549326 26.853648
CG 60.802452 15.953327 37.404520
CG 64.395074 21.301447 48.952999
CG 61.389781 24.888485 43.094889
CG 59.179440 35.300934 25.753282
CG 66.811891 13.603816 9.116290
CG 60.446232 26.640847 26.284817
CG 53.142629 0.911328 20.966100
CG 64.001160 18.854485 123.964337
CG 74.015996 12.402719 8.017048
CG 78.576730 25.807231 10.871538
CG 84.221406 13.703975 10.028929
CG 92.480900 32.033959 28.748772
CG 90.302461 39.122200 20.150735
CG 28.142783 117.330784 49.186174
CG 65.712026 111.506546 39.231638
CG 60.969452 97.697065 23.162032
CG 65.432302 122.262911 8.013885
CG 57.111281 103.396236 18.771125
CG 69.429752 91.879501 122.473637
CG 63.553355 104.302026 99.903150
CG 82.439326 109.000797 107.877199
CG 70.407779 87.565274 109.393819
CG 89.903082 85.593493 115.203862
CG 94.694933 74.786045 105.508555
CG 74.745436 55.624818 122.348636
CG 123.762580 109.031242 21.427059
CG 73.536252 63.270094 124.999796
CG 89.061773 66.501345 75.147553
CG 81.016821 33.594071 55.008686
CG 60.220554 43.679423 67.538949
50
frame
CG 58.477779 64.791724 23.149264
CG 65.798545 66.133528 12.981552
CG 60.111619 63.420550 14.440367
CG 61.128263 65.840932 22.529056
CG 68.013868 56.462691 16.310111
CG 68.000008 55.098661 9.195909
CG 65.739946 53.269884 23.027022
CG 62.407475 46.317129 12.718213
CG 64.625014 47.818446 16.381235
CG 65.751212 57.181858 7.910159
CG 63.168021 41.559254 8.973167
CG 53.011589 33.038475 16.358152
CG 57.542515 33.349491 12.196808
CG 56.910126 43.437204 1.390312
CG 61.045614 35.877656 6.397713
CG 54.067491 25.838785 11.600324
CG 58.818890 27.590879 18.509325
CG 63.651465 35.223991 19.352013
CG 59.105260 23.762601 20.918755
CG 58.747790 19.854470 35.848922
CG 66.647522 33.363989 35.733911
CG 63.220164 30.295344 25.353893
CG 63.854474 20.998711 24.174969
CG 63.753343 15.349292 33.963041
CG 56.461764 22.991516 35.116759
CG 62.097138 15.987275 11.372135
CG 71.692962 24.841174 8.058486
CG 69.137629 16.805785 21.897386
CG 69.174856 16.939449 14.232082
CG 77.484421 17.867288 13.866456
CG 77.744461 28.095271 20.339860
CG 59.300809 7.675996 22.118820
CG 61.995260 117.926133 31.617323
CG 92.683185 11.131615 17.323112
CG 65.543794 9.228712 17.594059
CG 54.265393 121.006833 28.259097
CG 61.105050 96.112474 21.833878
CG 68.312340 104.436089 121.388204
CG 67.007689 114.104057 121.885940
CG 72.193010 96.176147 4.571628
CG 71.575673 85.647815 116.186153
CG 84.862163 92.261576 108.450220
CG 78.947237 84.158166 112.465702
CG 87.776686 90.488915 3.824636
CG 96.691792 88.922980 117.237738
CG 71.773369 51.169918 87.150533
CG 92.496946 61.402976 86.999720
CG 82.445363 61.957325 107.449023
CG 71.617242 63.939341 98.716387
CG 85.738108 49.400663 68.850297
50
frame
CG 69.992775 53.086343 6.343816
CG 63.959351 59.261562 18.152933
CG 63.635699 60.545033 20.461480
CG 64.148894 65.238763 15.505170
CG 58.566095 61.657470 28.210535
CG 55.732675 57.027676 20.548017
CG 61.799538 49.939616 21.201804
CG 63.109413 56.406050 123.335484
CG 64.834399 45.883793 9.356851
CG 58.026894 41.295843 3.847309
CG 63.382281 35.885767 13.427155
CG 60.488818 49.267137 8.871769
CG 65.041084 36.880668 18.407548
CG 55.703691 34.471947 23.691352
CG 64.691450 35.919281 24.940626
CG 65.008901 45.251729 16.183536
CG 62.600159 30.391164 18.215269
CG 54.870676 20.477831 25.691990
CG 58.685195 28.134787 23.967012
CG 58.285129 32.005626 14.630417
CG 58.464891 24.984229 8.496579
CG 60.186507 16.952339 20.136241
CG 62.098570 28.110606 25.317264
CG 64.597239 16.352000 12.896341
CG 71.114353 24.899173 19.099742
CG 72.923860 14.546333 31.963346
CG 71.465183 31.251352 31.376749
CG 75.463248 21.336396 23.004401
CG 73.330722 32.799788 25.399653
CG 51.171349 4.270129 32.908937
CG 46.717753 116.631604 31.262916
CG 74.480988 121.853779 8.896284
CG 61.202935 1.949216 10.807599
CG 72.392237 3.660396 3.959953
CG 66.969525 109.510060 11.203753
CG 96.003066 11.131196 116.386921
CG 70.742923 5.736942 2.721708
CG 69.125913 113.707934 16.607658
CG 67.841966 88.744396 15.900164
CG 82.823648 93.601426 4.013147
CG 71.863692 92.926231 6.492241
CG 81.677078 93.156254 19.469974
CG 80.095723 90.773925 119.791815
CG 65.692254 70.392382 87.319081
CG 83.050679 79.037969 76.446782
CG 61.310481 57.974937 90.503860
CG 83.764226 78.833771 91.573362
CG 73.149129 44.933493 81.487728
CG 98.917910 72.840782 102.594487
CG 92.521170 84.623913 15.191072
50
frame
CG 68.157106 56.415297 16.497060
CG 68.697865 49.742437 9.982625
CG 68.231449 54.113365 16.438671
CG 58.668848 46.671525 22.856946
CG 57.661934 56.429630 12.748313
CG 60.937887 61.278979 15.929364
CG 55.100186 59.725828 0.434970
CG 55.368658 46.023273 27.080364
CG 55.473797 45.137678 6.286957
CG 63.331233 41.033095 12.824209
CG 59.960358 50.240407 10.284436
CG 68.554931 34.414034 17.453520
CG 62.525282 46.433729 20.941398
CG 75.829673 43.973118 26.785410
CG 60.355632 36.850791 27.265157
CG 61.014814 24.531263 38.872610
CG 60.319018 38.640333 29.293963
CG 63.291778 42.003628 11.064328
CG 59.394619 31.110744 7.869246
CG 58.411835 19.938318 7.643585
CG 54.447345 18.355595 15.313836
CG 60.270284 26.125382 3.273395
CG 65.663005 17.578051 1.373301
CG 70.238614 30.984827 21.445543
CG 76.331853 21.839179 19.650291
CG 76.294975 37.242142 24.977483
CG 70.739510 13.665902 35.805611
CG 55.255756 16.149440 42.618705
CG 48.102384 115.964525 45.372066
CG 70.929456 9.136947 20.338327
CG 68.611265 5.959419 8.244177
CG 51.545919 124.933171 23.278998
CG 70.556418 117.681874 0.616905
CG 57.085070 109.899548 121.867825
CG 84.715964 10.435068 111.238082
CG 67.111083 106.173550 2.569258
CG 89.390567 110.295985 0.104511
CG 97.510907 116.564887 1.536433
CG 88.190550 117.492321 10.649759
CG 67.839327 106.805256 27.079370
CG 84.188094 96.280033 19.039572
CG 60.049423 74.238504 100.557794
CG 68.614600 77.258974 99.347408
CG 71.299303 76.031865 104.961841
CG 47.670588 60.102378 100.132109
CG 92.243059 92.853545 87.195880
CG 68.103159 66.348380 96.055168
CG 91.231864 105.681930 0.255520
CG 89.541947 83.076406 5.210567
CG 88.663144 71.688484 109.556963
50
frame
CG 65.445238 48.449116 19.364443
CG 64.357507 50.007679 22.281516
CG 59.679436 45.157245 9.688850
CG 66.898257 52.285876 4.174062
CG 65.695550 46.260854 0.781091
CG 56.102595 38.463704 11.940020
CG 55.672656 46.915957 18.766201
CG 57.562544 51.358767 9.934079
CG 55.787371 56.658216 19.313694
CG 59.583792 50.523689 29.206039
CG 63.450106 43.600630 21.311195
CG 66.771628 47.091359 27.103462
CG 67.115814 40.564688 23.069916
CG 61.076140 32.198111 26.458509
CG 67.917921 42.978572 28.970553
CG 67.444677 46.588616 16.573540
CG 61.235047 32.883865 16.270452
CG 61.484299 25.849976 23.799557
CG 60.031369 29.304284 16.226631
CG 62.499750 33.761267 6.831737
CG 70.182068 29.811852 122.843812
CG 67.694473 26.118450 10.542818
CG 68.962185 25.479507 15.227045
CG 71.668062 29.907521 9.892982
CG 61.409251 22.217243 23.618960
CG 53.056738 11.112987 29.518152
CG 53.272925 1.066338 28.556940
CG 69.311760 6.207111 24.196577
CG 72.214365 5.007106 12.984295
CG 54.309906 0.315098 30.508518
CG 67.380266 123.368033 21.856267
CG 68.354956 123.925235 121.841747
CG 71.309454 4.658125 124.295852
CG 72.403363 118.614380 10.767534
CG 70.662074 100.803591 1.786964
CG 75.041586 105.682624 1.421144
CG 89.048911 112.107648 0.749192
CG 71.414632 101.714159 8.057531
CG 93.052831 112.600207 0.485357
CG 88.323936 99.571449 97.514883
CG 68.220393 95.628662 93.757061
CG 70.908938 96.049230 120.406145
CG 54.921456 70.856472 120.409647
CG 72.812792 87.585827 107.991472
CG 83.190763 90.755634 121.825189
CG 71.036751 92.640839 16.456303
CG 79.261813 94.766059 14.970082
CG 88.830709 91.572241 114.433760
CG 64.917204 80.869981 100.776215
CG 84.736077 99.634952 113.461833
50
frame
CG 57.227149 40.268006 15.515521
CG 59.945736 46.480906 9.041108
CG 65.958905 45.626107 9.521368
CG 59.869515 38.699169 8.035178
CG 57.130227 35.898469 19.365407
CG 64.932677 45.732525 0.105578
CG 66.508167 39.144775 16.446028
CG 60.233563 46.424498 17.394918
CG 66.089173 42.520475 33.493335
CG 59.815911 55.371874 19.006119
CG 62.975694 48.958631 38.700053
CG 53.391694 47.823822 30.767796
CG 64.928069 39.598235 31.898656
CG 61.508554 52.077072 17.357417
CG 65.455160 35.176766 9.110883
CG 61.587131 32.785769 12.963168
CG 69.878491 35.155870 16.027737
CG 65.427424 37.475078 9.720100
CG 72.616874 32.470715 10.578785
CG 72.840077 31.561915 22.257264
CG 71.486190 37.873058 21.448655
CG 74.067923 34.749472 13.729510
CG 65.159559 35.192311 19.209576
CG 48.277709 2.878488 23.102650
CG 49.950629 7.470813 18.637827
CG 63.088255 121.000442 9.196038
CG 65.113370 17.205687 3.206378
CG 53.864817 118.808108 8.951858
CG 66.224228 10.411802 11.795364
CG 75.811714 121.726866 120.474288
CG 66.701962 0.620697 4.081092
CG 80.391808 120.333973 20.023199
CG 66.070831 104.776449 24.790156
CG 86.770996 118.346116 123.785510
CG 72.839806 109.210135 19.741033
CG 85.911554 116.801178 9.860742
CG 60.066959 97.212091 2.647065
CG 77.888765 97.113495 96.373097
CG 58.286711 79.816848 83.715933
CG 72.441662 93.321730 102.650046
CG 73.117923 91.817175 107.016166
CG 91.208627 103.860156 104.842095
CG 94.665891 124.147136 118.237283
CG 68.820808 104.168102 32.792951
CG 84.134190 111.185868 30.673778
CG 70.014125 83.216428 9.020135
CG 83.536974 107.717818 123.669751
CG 53.159795 80.946606 2.831247
CG 86.352615 117.133592 1.151746
CG 59.975748 98.237719 108.258240
50
frame
CG 62.176469 33.026414 96.280327
CG 60.209184 11.684772 85.139694
CG 55.426011 23.444105 118.672377
CG 59.190225 36.317461 13.505139
CG 66.961470 43.606004 11.690344
CG 64.342293 39.608001 30.331691
CG 64.904515 41.499082 18.748754
CG 72.059926 39.564335 26.064158
CG 65.892424 40.286279 18.425815
CG 62.867120 34.469595 34.462267
CG 58.592895 46.529911 26.790269
CG 64.378459 51.178271 22.418198
CG 49.942726 63.065433 41.139656
CG 57.191597 54.876453 64.065625
CG 56.822027 49.679548 43.343053
CG 66.630166 39.431223 15.624548
CG 69.421772 37.670411 4.032328
CG 79.152279 37.995604 11.839608
CG 77.232944 43.470942 22.480229
CG 76.282181 39.659303 15.976972
CG 67.617768 29.922376 31.025917
CG 51.881030 16.907136 35.866303
CG 51.934772 4.348905 22.009093
CG 67.452004 18.963122 13.085991
CG 70.029144 12.785922 123.878210
CG 52.379668 8.850538 1.480248
CG 60.082106 119.830133 1.696265
CG 73.009028 7.943881 109.452762
CG 59.977435 118.774320 115.720040
CG 72.967410 124.832544 4.472512
CG 78.126067 113.587888 9.155414
CG 75.716601 111.645943 5.174989
CG 87.570901 116.052662 10.865769
CG 71.683039 104.852796 32.921896
CG 76.755412 114.180980 6.021887
CG 65.219203 94.332601 104.985671
CG 66.065909 90.694101 95.095431
CG 66.723869 96.570686 108.470402
CG 61.410411 92.773733 115.490104
CG 68.247756 95.419111 105.451842
CG 91.328435 111.368685 116.110537
CG 69.278181 105.352391 11.305549
CG 90.091778 115.036551 21.348238
CG 103.520893 117.397373 120.976312
CG 73.930278 115.247731 119.636148
CG 76.715385 123.832878 14.306087
CG 63.273279 103.342910 15.491993
CG 70.514938 121.839666 6.177720
CG 56.284237 101.916868 6.578936
CG 64.258714 105.883458 17.936505
50
frame
CG 58.817681 117.660573 63.263048
CG 64.445209 15.688031 73.889830
CG 64.551841 24.556644 91.880151
CG 66.348037 16.723074 102.830484
CG 61.726489 25.162894 0.633792
CG 65.983168 31.879295 22.500289
CG 68.032224 40.712214 27.569920
CG 62.454596 32.246615 32.873405
CG 61.246817 41.235833 24.094225
CG 70.741448 42.936020 22.921337
CG 60.068963 47.251748 26.592953
CG 58.205697 47.561340 64.913881
CG 61.348048 48.958683 40.867618
CG 58.434789 56.180350 48.644787
CG 61.828640 62.195647 40.581839
CG 69.073184 63.552077 61.674669
CG 68.330418 56.400341 52.058957
CG 70.605048 44.181881 28.906921
CG 65.597224 31.680645 20.494304
CG 56.581876 22.667892 31.058226
CG 57.414567 10.899898 17.168802
CG 71.136511 19.509445 11.486735
CG 73.218589 16.441377 13.979606
CG 58.620099 14.570725 8.283753
CG 58.684467 1.170799 8.535544
CG 79.961068 20.046795 115.883871
CG 67.355921 2.185957 109.408202
CG 65.603357 1.137869 3.141074
CG 81.173360 110.880137 122.422578
CG 67.703832 113.457474 121.555498
CG 77.640637 113.269260 123.351574
CG 71.342020 111.978212 10.885078
CG 75.173381 114.227108 118.695889
CG 65.187208 98.514587 98.340956
CG 70.925351 86.636495 92.689813
CG 59.008133 91.801191 2.364808
CG 77.822086 109.900839 124.625263
CG 58.001519 94.253519 119.105189
CG 96.578549 122.901409 2.314988
CG 75.046196 114.273108 21.284769
CG 63.860127 108.302315 24.457442
CG 90.225035 115.454642 0.580301
CG 65.739189 97.785156 111.611932
CG 66.785423 121.265128 121.257296
CG 82.084494 115.231832 5.548917
CG 88.175091 14.342918 117.177871
CG 61.884300 2.800477 4.569526
CG 77.528532 5.915424 27.894649
CG 50.760063 105.869854 32.273114
CG 64.661831 122.095289 29.074153
50
frame
CG 67.829088 10.503806 74.530794
CG 62.714593 124.410423 87.548261
CG 68.451088 117.440485 69.341854
CG 67.568399 14.335422 85.622525
CG 67.771251 14.811144 105.806789
CG 63.758324 15.942271 98.568063
CG 58.310024 17.570858 7.164039
CG 62.537239 42.294144 12.757552
CG 66.275710 41.328891 43.173530
CG 52.201181 49.234079 52.648274
CG 68.029763 42.375786 56.383141
CG 64.184562 48.288717 27.046028
CG 71.385009 46.641954 46.845229
CG 72.150303 54.342144 41.079760
CG 74.042671 54.256980 61.855275
CG 59.584242 58.084221 51.785311
CG 59.261803 54.479718 60.036966
CG 44.104760 46.174622 76.752779
CG 49.981182 27.335239 52.370181
CG 65.035313 21.182202 19.938749
CG 71.948724 25.770952 8.544400
CG 64.060914 14.580184 3.245848
CG 64.077213 16.765070 123.853650
CG 81.504910 8.680014 119.975217
CG 76.662769 19.115451 121.026931
CG 65.047019 115.534479 10.387526
CG 82.385388 6.013098 10.971532
CG 78.937956 114.228112 121.902678
CG 73.688171 4.874782 124.642200
CG 76.926877 110.858043 1.099345
CG 65.403683 110.951660 110.805150
CG 66.867293 102.236959 83.008162
CG 50.901776 80.510093 87.475384
CG 69.752498 102.451438 98.941597
CG 62.496443 107.842244 124.706639
CG 80.412749 110.693756 105.044088
CG 76.460506 105.010871 7.830672
CG 93.377159 1.841868 35.855969
CG 60.346709 109.510394 31.589169
CG 84.011382 118.074860 12.400703
CG 78.192811 114.182450 119.248391
CG 59.285123 117.540458 6.681538
CG 69.252378 4.397652 9.376567
CG 66.682409 118.256876 3.068646
CG 60.236314 3.567316 120.092334
CG 52.593716 107.164082 15.498523
CG 88.006510 8.030594 21.374353
CG 60.841961 122.209974 13.363878
CG 88.520782 36.462575 26.635442
CG 59.663688 3.161627 38.318195
50
frame
CG 71.272327 1.030536 99.070911
CG 73.985568 5.632374 78.533762
CG 66.867453 8.443587 98.235834
CG 62.218375 117.170006 86.737728
CG 64.321156 118.954445 68.041101
CG 63.605487 16.953715 94.512711
CG 65.829242 24.770810 104.329674
CG 58.020203 21.955184 6.142179
CG 57.386587 27.576135 22.083299
CG 68.151268 37.244720 26.251134
CG 66.525196 47.705093 45.195040
CG 74.780580 49.491985 48.398222
CG 72.823578 53.524883 58.160444
CG 70.289064 44.931900 50.498398
CG 60.166451 41.321764 52.414497
CG 55.849077 31.540452 59.482267
CG 48.890190 26.089810 58.360601
CG 61.724106 31.389407 34.998042
CG 64.164432 49.340587 47.971691
CG 53.684879 42.211126 49.470688
CG 56.144192 28.840491 35.633986
CG 73.035658 19.872965 8.510479
CG 77.821147 15.794321 119.151149
CG 68.376949 5.697659 4.852098
CG 85.013414 1.907063 3.321914
CG 86.355449 0.814938 124.991343
CG 75.845501 124.142515 8.056464
CG 78.286570 121.241585 8.746864
CG 68.119689 112.634601 119.077473
CG 70.182855 113.181921 85.570608
CG 58.662657 95.983945 86.166819
CG 62.839875 97.168382 99.433491
CG 70.472304 117.615067 110.214759
CG 67.043352 105.461150 108.456208
CG 73.715323 109.597125 114.531220
CG 85.209438 1.051812 20.038133
CG 64.391351 119.881182 21.687601
CG 81.703307 118.316867 119.784881
CG 77.939183 110.232414 124.637913
CG 64.465761 121.080080 14.180297
CG 68.015360 8.410270 22.355781
CG 65.247262 0.135665 12.106545
CG 66.702559 8.179132 9.731536
CG 55.192826 120.237693 21.462970
CG 63.363202 2.233845 30.993011
CG 61.320667 2.949138 22.671372
CG 57.424040 9.124847 17.296038
CG 63.867805 8.281583 28.617093
CG 72.664687 5.911758 22.117367
CG 93.744730 43.292505 9.936190
50
frame
CG 73.103709 1.376144 96.259468
CG 68.924319 122.368054 108.241745
CG 67.868944 0.348932 91.020135
CG 70.933489 12.028157 89.513704
CG 62.460124 20.327043 110.632979
CG 59.945266 122.304957 111.050416
CG 61.295925 4.721240 94.277891
CG 69.972408 12.729998 103.928325
CG 70.280821 29.134208 101.941077
CG 75.971078 23.739641 6.358635
CG 67.343866 34.162061 13.358529
CG 67.449025 35.829600 55.487623
CG 57.862409 35.659011 42.770707
CG 54.329058 30.058515 68.962110
CG 52.847597 23.327669 50.284915
CG 67.992412 22.173010 38.214715
CG 70.406301 34.157454 31.723560
CG 64.007215 31.205030 40.442158
CG 56.252433 21.568586 31.170902
CG 70.244459 30.649528 26.324577
CG 70.786489 36.055823 32.109976
CG 60.162435 34.461796 50.754861
CG 72.189221 12.949294 46.350239
CG 82.746392 15.146361 13.757099
CG 71.123405 120.662894 8.400405
CG 79.344767 11.373584 2.324854
CG 74.899064 109.612866 105.123777
CG 68.924959 120.273376 91.048492
CG 69.875768 96.625215 88.960720
CG 58.400218 103.380442 115.213103
CG 78.878437 121.889393 117.997461
CG 71.065504 123.509269 117.772725
CG 80.596970 118.723849 116.068198
CG 77.261090 0.841712 18.055146
CG 78.301885 3.931407 8.771512
CG 55.898557 107.226085 119.685556
CG 86.883245 121.358868 102.084018
CG 46.840157 114.761815 3.000454
CG 73.583612 22.669572 7.752813
CG 66.366198 2.396175 124.033135
CG 60.481440 121.712538 13.092446
CG 67.495629 7.652694 29.990723
CG 55.302073 119.454844 42.673045
CG 67.285920 20.387320 32.730367
CG 59.912153 7.312607 30.856115
CG 69.974686 26.933182 32.403757
CG 52.542760 3.564099 33.449727
CG 91.363981 43.287391 15.598309
CG 64.263983 21.671237 3.511441
CG 71.480480 3.856491 12.685180
50
frame
CG 68.489154 124.468557 100.997136
CG 71.209999 6.763953 90.263800
CG 68.746961 9.526717 105.372149
CG 62.874605 0.384463 109.934930
CG 66.556193 123.087399 92.529194
CG 69.196280 17.968403 95.086096
CG 68.523242 19.875877 112.024995
CG 65.783369 15.782914 115.668722
CG 66.732376 15.198598 1.581803
CG 64.845240 27.665040 8.753905
CG 66.747782 28.516996 21.158746
CG 62.394268 27.795891 22.881101
CG 63.091748 27.817838 41.389204
CG 65.739926 29.567837 34.960986
CG 66.899888 33.739046 42.849997
CG 57.143070 32.464462 50.431388
CG 56.653887 21.864525 44.032954
CG 66.422079 25.975810 30.443782
CG 72.802675 36.352787 34.813153
CG 61.202473 29.851580 43.238229
CG 64.080593 19.601215 39.162854
CG 77.831049 17.649129 19.738131
CG 71.196645 22.017029 16.311404
CG 66.739040 14.049896 27.932682
CG 76.613025 9.327082 11.380462
CG 72.308571 118.570300 115.788037
CG 71.000711 120.718615 114.795837
CG 71.766203 111.714247 119.934142
CG 72.037624 122.543945 116.762943
CG 77.656874 120.566367 101.602552
CG 68.120162 108.153229 106.748533
CG 73.723591 114.325991 123.872517
CG 72.361956 124.381325 5.373855
CG 70.056712 117.029333 112.292310
CG 72.955279 115.171315 114.395236
CG 76.359680 4.080163 5.099757
CG 59.839759 3.706510 13.678578
CG 76.456402 2.982857 120.135490
CG 63.434338 112.579606 121.521677
CG 60.989209 2.488095 17.914424
CG 66.354068 10.119993 22.699781
CG 61.875863 4.922459 17.854441
CG 66.839121 12.731224 19.020746
CG 61.874155 5.509101 32.204540
CG 63.372681 13.038802 35.063759
CG 68.019514 16.593467 24.922387
CG 75.270211 27.506474 16.157531
CG 57.043354 3.563151 22.632015
CG 71.794597 10.781095 24.545853
CG 73.696137 30.460326 10.265084
50
frame
CG 66.703718 14.385782 97.738627
CG 62.810941 3.777974 106.695983
CG 66.115591 123.041403 100.448027
CG 71.194730 11.372380 94.875295
CG 73.094090 13.633997 110.002288
CG 69.926157 14.221687 116.927417
CG 71.045228 12.167895 123.052640
CG 65.744525 29.293782 5.495233
CG 62.350437 22.354905 26.304802
CG 55.029575 16.403601 13.209543
CG 60.145697 10.957644 21.522744
CG 65.026390 20.310274 122.200600
CG 73.662617 25.773124 10.376056
CG 67.247767 29.741579 8.997632
CG 65.260800 27.699163 30.135416
CG 66.176495 31.217435 28.179692
CG 67.804894 37.204433 43.874980
CG 57.207020 30.983122 54.743491
CG 61.706135 18.089232 48.893527
CG 75.295742 13.935674 25.135946
CG 74.677529 20.534197 17.608414
CG 65.208125 10.940595 19.241981
CG 69.114062 10.918409 5.612538
CG 69.166584 1.091045 117.747761
CG 66.443065 14.491024 0.168220
CG 62.651089 124.210516 21.080280
CG 73.141352 14.475318 22.624913
CG 78.883491 2.462826 5.461953
CG 73.878715 4.576104 6.820127
CG 80.404328 122.623908 7.142595
CG 71.517731 1.200752 1.867273
CG 72.550702 114.932816 99.528673
CG 62.517344 104.167295 101.132405
CG 70.826590 118.092181 114.823876
CG 58.613716 1.430585 6.153235
CG 80.179924 6.512467 117.003873
CG 62.196297 113.568582 5.493373
CG 78.800492 8.515861 22.612464
CG 59.758346 124.359212 29.157216
CG 71.789178 2.595445 12.281111
CG 66.192896 1.686038 4.720160
CG 61.447043 6.494804 17.759088
CG 69.998042 20.447872 15.098454
CG 66.494887 9.499202 7.960580
CG 78.026920 23.626609 4.427711
CG 55.700693 117.049506 20.500444
CG 72.713844 10.044210 26.324558
CG 61.491348 11.760577 20.798863
CG 75.831923 31.860608 22.224241
CG 59.957530 10.817388 36.033508
50
frame
CG 60.392206 3.043429 107.019339
CG 67.884539 17.031917 101.849238
CG 69.857780 22.841620 102.824498
CG 70.555106 13.835975 117.682449
CG 68.691566 17.162135 3.905010
CG 76.820402 120.991718 18.870897
CG 94.640917 63.234205 52.751588
CG 70.490335 111.584904 30.021826
CG 62.146641 13.349538 1.743840
CG 70.609486 17.452346 10.021942
CG 65.780366 24.009875 121.337970
CG 64.482414 15.974756 19.187359
CG 57.720729 14.021365 121.581012
CG 67.705019 19.109968 6.842210
CG 71.035569 29.057236 0.175782
CG 71.023006 27.063632 19.845699
CG 67.558183 22.744494 26.658082
CG 78.151543 18.916792 23.359406
CG 69.316750 19.503562 21.098914
CG 61.043343 15.779498 31.141188
CG 64.773157 4.058368 15.909129
CG 68.419072 6.754438 123.988253
CG 66.833366 1.881429 4.987835
CG 63.945121 9.913474 12.989971
CG 56.582576 113.283250 10.275623
CG 47.356589 34.786867 98.256553
CG 62.139882 12.326463 4.707760
CG 67.213387 22.442135 35.000190
CG 77.591483 8.011770 25.739718
CG 64.400780 2.903029 8.962229
CG 76.798183 123.073232 120.895023
CG 68.067678 2.182982 7.186649
CG 71.051121 8.681415 122.873245
CG 66.955235 123.803421 114.675571
CG 71.545339 111.902356 110.262807
CG 51.500721 109.597037 15.246959
CG 79.988755 10.798342 13.934927
CG 54.801850 117.018102 11.529594
CG 81.403662 13.877692 9.898348
CG 69.547661 7.966742 21.043112
CG 66.973627 9.760896 23.806800
CG 80.354469 13.514801 124.071007
CG 67.306505 122.477660 120.800421
CG 68.894759 11.165828 2.970349
CG 61.805215 120.556830 9.940664
CG 79.599889 27.633161 2.437346
CG 59.179873 9.157269 11.756218
CG 76.039024 16.859236 32.285605
CG 48.785944 122.108024 37.713763
CG 67.961513 16.345823 31.155904
50
frame
CG 72.110937 25.978983 108.811333
CG 66.614770 14.026666 118.146455
CG 66.164064 14.822046 14.942720
CG 73.366882 123.582665 29.344507
CG 88.603232 77.351835 40.716820
CG 83.486188 79.393023 43.296045
CG 81.169751 87.541387 29.121627
CG 93.179970 77.875027 27.999993
CG 98.030962 71.420233 31.683943
CG 77.075624 109.355052 20.881990
CG 66.993989 8.106449 1.034939
CG 68.078231 18.973211 123.475652
CG 68.621378 25.018271 8.017401
CG 64.478733 15.464752 14.141561
CG 64.082470 6.669727 5.597327
CG 74.040196 8.025560 120.381535
CG 77.641703 8.636743 104.983331
CG 69.565246 11.710334 115.410982
CG 73.511485 9.776140 121.172357
CG 71.040389 8.241050 117.776300
CG 60.672815 7.121672 9.955513
CG 59.280014 5.519056 25.896089
CG 51.890989 117.357327 14.919886
CG 47.283670 106.122813 115.871825
CG 53.237531 109.180601 116.156266
CG 45.279484 92.206091 7.178789
CG 46.551849 13.557116 123.427216
CG 42.428782 9.741881 99.509651
CG 51.665095 13.178045 120.450827
CG 66.602566 22.946876 25.432323
CG 64.625550 17.043922 28.890326
CG 68.636397 13.009311 18.932797
CG 76.004336 3.836644 15.276046
CG 60.557228 122.745359 25.452370
CG 74.855943 11.747538 16.916024
CG 67.611513 124.806323 124.740540
CG 63.268807 119.907924 121.952394
CG 68.829898 3.298630 6.949177
CG 68.157029 4.343367 7.787789
CG 70.226347 8.791433 124.384736
CG 84.555187 11.096432 120.681449
CG 67.728708 2.375222 12.103897
CG 70.198846 2.962325 15.368212
CG 80.565649 10.804314 124.793753
CG 64.344453 7.384815 2.141478
CG 68.357699 10.360994 17.807413
CG 61.726368 4.851997 20.829323
CG 61.826370 11.750413 11.521690
CG 69.934243 7.645676 19.636555
CG 58.962769 123.887765 31.318658
50
frame
CG 72.846726 20.277183 30.358201
CG 79.442548 3.814276 42.175946
CG 89.755396 80.223405 44.230447
CG 83.813737 72.431511 42.470897
CG 75.551308 95.704496 38.091233
CG 90.109829 79.866327 32.092231
CG 88.895254 95.891858 19.314719
CG 92.782956 76.453947 29.113229
CG 7.747850 89.816001 34.783357
CG 93.102404 56.536569 16.876367
CG 48.757860 85.772557 51.474023
CG 75.947281 113.289766 6.643985
CG 75.445395 119.620883 11.269047
CG 74.318740 7.063587 108.548358
CG 76.030799 5.870296 116.674645
CG 63.465687 123.588734 103.935744
CG 66.532745 121.529276 107.394109
CG 69.675913 121.015824 90.828221
CG 65.922365 121.885773 94.288668
CG 66.190617 123.486867 112.043751
CG 62.985708 122.934485 116.126724
CG 47.439332 105.440019 107.884416
CG 47.218896 114.328596 119.278706
CG 44.727871 106.986544 19.293937
CG 37.110637 108.274485 3.880364
CG 49.715007 24.304155 120.676250
CG 39.714867 15.475431 106.359027
CG 47.756791 15.189642 4.450276
CG 36.175677 24.221189 124.876974
CG 43.425485 14.584592 109.262982
CG 49.998475 21.902989 13.743160
CG 62.494688 17.471172 38.188160
CG 57.765376 16.361233 48.224909
CG 80.665404 20.960779 26.035116
CG 58.279134 5.591285 28.533370
CG 82.579874 21.188701 17.341205
CG 63.869670 6.282343 12.199648
CG 83.025670 14.648634 113.008405
CG 63.686696 118.746740 109.989031
CG 73.535818 122.327538 120.757025
CG 61.711140 120.545719 1.462291
CG 75.050295 7.142087 124.570718
CG 82.413698 22.449452 1.156986
CG 59.446671 123.174048 28.892740
CG 79.735978 17.196056 25.657300
CG 56.002787 113.423014 10.245783
CG 77.340717 10.397491 8.754450
CG 54.579420 113.688127 18.737384
CG 67.715191 8.613932 11.318432
CG 66.219951 3.561424 124.706883
50
frame
CG 97.284569 53.461875 104.486834
CG 92.365492 68.912952 78.000958
CG 81.730886 105.516515 53.823656
CG 93.236224 96.347027 41.212911
CG 96.157886 87.075683 25.009977
CG 93.072923 91.231727 25.112721
CG 124.178273 76.346948 49.226174
CG 6.256790 98.801597 42.149345
CG 80.564270 27.257456 7.959803
CG 90.996841 18.646737 49.797700
CG 96.344888 95.526869 78.332547
CG 57.214258 105.094855 118.228363
CG 61.206696 103.233275 96.928293
CG 74.530655 95.549220 111.739369
CG 72.349117 108.763760 97.696767
CG 75.155317 119.607509 94.392694
CG 62.593925 118.477508 97.821172
CG 59.146668 111.027815 107.723273
CG 56.089158 107.649305 101.918592
CG 45.959382 97.140355 83.082696
CG 48.576509 95.867559 78.897220
CG 55.188043 109.657305 103.608459
CG 48.638412 104.805464 108.716886
CG 47.001311 110.717618 101.238776
CG 43.084363 108.951577 120.246807
CG 35.904718 97.696139 3.062632
CG 39.317286 20.396343 17.397965
CG 40.360766 20.916590 3.096565
CG 48.583135 15.289568 2.284767
CG 37.843810 17.684706 25.215724
CG 38.440747 17.467005 10.045446
CG 42.495243 23.155824 122.317576
CG 49.865312 28.320745 12.957684
CG 59.722795 29.826588 36.597905
CG 72.445984 25.653498 30.430523
CG 68.308612 17.653352 23.585452
CG 82.965090 20.852334 10.415772
CG 64.315409 0.073427 13.028616
CG 77.610527 11.846018 6.359787
CG 72.771154 6.763785 115.960561
CG 70.007393 6.788430 119.716461
CG 66.265700 0.428686 8.087833
CG 58.161622 116.203900 17.273667
CG 70.970210 7.384496 2.693740
CG 69.030250 121.644740 9.670647
CG 73.299517 6.732868 26.198514
CG 62.220001 120.416039 17.100217
CG 79.637812 3.031412 122.388035
CG 61.865019 116.452150 116.310172
CG 67.391372 3.203886 123.671573
50
frame
CG 101.982952 31.808206 93.279117
CG 106.863514 30.572385 99.345113
CG 109.800235 49.329138 87.592822
CG 103.892564 87.535509 64.013863
CG 2.753912 88.803521 68.043374
CG 9.980756 105.898296 61.396050
CG 87.625016 101.563933 46.703523
CG 76.331482 79.706586 49.388134
CG 95.699545 72.729443 90.755510
CG 91.392791 114.740767 83.720592
CG 90.403686 4.878846 4.229180
CG 100.695937 84.376643 58.161173
CG 90.709511 85.212175 85.198670
CG 57.578314 95.604732 90.279153
CG 53.298341 88.072665 88.276433
CG 62.297728 83.193645 110.861787
CG 65.035349 91.541271 93.979696
CG 50.632194 96.489965 84.708459
CG 44.637444 91.321293 84.613920
CG 50.921005 97.922228 98.344767
CG 42.938355 95.420080 100.248481
CG 42.620358 95.860628 77.139338
CG 46.467149 97.881590 78.289473
CG 44.934338 110.596805 94.520833
CG 50.054664 112.523101 111.744296
CG 41.794424 43.015181 117.336829
CG 47.592911 16.615509 8.240569
CG 32.340144 19.393278 22.601683
CG 35.275066 16.887856 31.664704
CG 45.407287 27.169702 9.870924
CG 47.312660 24.645721 8.019523
CG 38.450039 28.461901 21.835654
CG 52.232978 26.182860 119.820276
CG 34.268653 19.434374 113.723681
CG 63.747162 37.932965 123.289741
CG 53.018311 16.444857 23.487171
CG 68.996477 19.639612 28.019138
CG 72.305206 23.096661 25.806059
CG 77.442377 23.320071 21.046877
CG 62.139403 9.904026 29.592131
CG 74.770192 7.059668 20.098170
CG 64.733311 2.572247 124.774816
CG 64.580784 116.941021 123.519620
CG 72.311750 121.025504 7.775682
CG 50.145306 108.458943 6.136757
CG 81.746988 7.789348 111.660320
CG 67.874869 115.702626 117.715899
CG 70.658293 9.388334 5.328443
CG 73.995147 124.172985 5.863994
CG 71.035460 112.712336 116.157409
50
frame
CG 119.406297 33.931304 78.844807
CG 118.620311 51.542610 78.424065
CG 17.383598 23.828748 102.891675
CG 23.854116 27.521362 124.277414
CG 99.440339 68.626976 106.630355
CG 78.862020 64.286813 90.369067
CG 104.854454 82.706048 71.140255
CG 97.505688 83.767529 58.211766
CG 97.928126 33.927552 24.071300
CG 88.824930 112.525461 77.307753
CG 85.637724 18.134741 100.892111
CG 89.423735 64.015632 123.345240
CG 78.871556 73.547728 24.118345
CG 93.541361 68.860094 47.976803
CG 82.126473 69.660394 86.433934
CG 37.642505 72.404215 67.426009
CG 34.218608 61.970189 83.815995
CG 53.637609 67.532215 95.481778
CG 54.788391 83.405142 93.385991
CG 43.724660 90.426777 80.994360
CG 46.381248 97.715520 80.504898
CG 40.684441 96.172121 96.036793
CG 41.089165 109.042306 102.179516
CG 43.348351 99.600264 99.753401
CG 42.161355 105.584615 90.901535
CG 50.023810 84.647987 116.367954
CG 37.953937 24.061115 117.617005
CG 53.822542 25.810212 2.226572
CG 43.519493 33.959344 5.080508
CG 36.694001 23.493130 18.558516
CG 42.308893 29.667447 19.684013
CG 51.623648 23.211115 118.694481
CG 42.319314 27.253654 6.224818
CG 55.219731 26.449213 4.316612
CG 28.570131 6.300549 124.782153
CG 54.573043 36.390352 111.663482
CG 44.348800 32.267584 10.839418
CG 59.956471 30.075787 32.579054
CG 53.206794 10.091126 43.050770
CG 75.517372 20.724301 31.072378
CG 61.805076 8.479569 25.048781
CG 71.754758 2.382503 30.673822
CG 74.598253 10.153103 8.057767
CG 60.083655 115.222799 112.260272
CG 85.406556 6.325855 103.675802
CG 50.079116 103.079432 116.555661
CG 74.473152 4.680694 116.613293
CG 66.793818 103.037866 108.390005
CG 77.356823 119.074782 115.910004
CG 77.756088 3.975164 12.861516
50
frame
CG 34.692711 47.087749 91.891015
CG 34.984382 24.793639 105.705567
CG 107.026930 60.435900 96.487248
CG 86.010757 37.583598 94.581648
CG 120.750755 5.226437 106.149909
CG 119.794369 16.188262 114.630502
CG 102.499029 29.022075 115.942069
CG 102.695879 54.691887 114.992281
CG 87.379924 112.150073 101.704788
CG 96.286661 113.384139 50.577752
CG 91.238120 64.755934 89.580976
CG 73.252340 58.234681 16.482691
CG 80.541008 42.137594 123.736373
CG 64.487863 41.377309 116.499921
CG 56.877410 48.500104 124.519750
CG 91.596156 51.279481 43.104046
CG 72.989129 65.426116 72.760612
CG 33.876802 67.931820 66.535415
CG 35.064316 66.286761 78.193045
CG 46.106924 69.954123 93.034210
CG 47.875245 88.260354 96.794418
CG 48.157450 101.994143 101.352312
CG 43.064150 93.751676 99.598462
CG 42.255132 92.571853 110.650798
CG 36.922939 83.736483 119.726494
CG 43.886528 14.481389 99.603062
CG 49.674612 36.995994 97.299718
CG 44.292640 38.530009 103.263037
CG 51.084090 30.668150 106.087953
CG 57.143307 30.948037 112.181832
CG 43.357541 27.794059 118.064032
CG 43.310752 25.151240 11.574783
CG 35.129567 14.178869 14.183513
CG 50.251388 30.272104 3.527726
CG 47.860600 37.361271 13.918710
CG 40.785386 23.013122 23.291868
CG 34.490952 10.413602 8.589227
CG 38.561018 18.905795 120.477293
CG 46.309709 28.512582 8.584775
CG 52.429411 14.046551 28.646931
CG 63.189892 16.173416 31.174260
CG 68.300559 14.900673 11.900716
CG 70.934442 7.183837 11.315746
CG 71.194458 6.973855 11.786366
CG 71.304774 4.480881 124.623600
CG 73.886989 116.186639 110.208485
CG 73.243833 109.466508 105.041418
CG 72.539316 119.060076 123.074804
CG 69.637143 121.743126 123.776260
CG 74.497053 112.347061 105.791409
50
frame
CG 17.413791 43.446917 0.083677
CG 117.860893 47.127320 105.129649
CG 17.902691 12.215706 99.883550
CG 14.272189 19.955845 95.797263
CG 106.813347 28.600477 105.732697
CG 111.497289 26.345694 120.602810
CG 107.357781 2.317740 31.899478
CG 107.623508 123.906828 55.056617
CG 104.305946 124.811170 37.227306
CG 84.191286 92.003624 49.929674
CG 78.227236 94.822248 84.974254
CG 79.892035 45.914506 100.988967
CG 65.976592 45.090761 107.822516
CG 69.276674 43.991484 8.908474
CG 78.142163 37.255635 118.321211
CG 50.659199 41.772427 116.422700
CG 59.205152 49.562214 112.681929
CG 87.263325 56.530252 42.197815
CG 65.958025 68.737570 70.227095
CG 41.149026 79.537678 84.508502
CG 34.314889 62.178218 100.034099
CG 44.345865 60.759654 102.655305
CG 47.356019 68.954831 114.226808
CG 45.251165 88.164325 102.385039
CG 53.781860 93.716167 99.548035
CG 37.498328 75.746619 102.740970
CG 47.484396 29.092550 107.165929
CG 48.067732 30.201829 86.417489
CG 49.620486 32.437328 89.682228
CG 44.826056 36.318564 92.718765
CG 52.839181 21.208327 103.671573
CG 46.407141 32.809554 120.362267
CG 57.978479 43.546969 123.022143
CG 21.995509 17.659025 30.847303
CG 44.762452 18.698920 20.644172
CG 32.532106 12.133543 12.027380
CG 52.695936 33.408865 13.521434
CG 35.607481 10.317878 20.973947
CG 44.555310 10.921996 120.504018
CG 33.103835 18.173784 102.667343
CG 52.526259 23.848587 114.236910
CG 51.499307 18.712990 11.146650
CG 58.598723 10.447397 18.478428
CG 80.980762 14.551103 9.884775
CG 59.209411 110.420501 16.241522
CG 92.335704 23.742683 16.536060
CG 68.333241 123.534470 11.447211
CG 79.462194 0.999704 106.593839
CG 72.423663 102.752385 95.465428
CG 63.340702 112.146176 108.976573
50
frame
CG 2.840830 30.609223 100.560262
CG 20.090548 25.306251 112.581277
CG 120.798860 42.599443 114.452353
CG 112.816775 31.832235 118.176493
CG 4.302902 10.457068 3.637416
CG 119.176418 6.111658 14.313366
CG 107.996844 14.228729 10.182318
CG 97.812896 122.874047 19.858053
CG 90.824026 102.794029 60.676586
CG 94.476054 94.625889 77.986646
CG 86.723497 73.959646 72.891232
CG 75.664800 78.677047 88.561405
CG 79.084494 63.729081 104.076780
CG 68.042059 46.998475 100.949125
CG 59.016169 49.357399 119.259179
CG 80.850150 50.922989 20.047737
CG 71.946098 53.657650 41.673736
CG 41.985152 59.731878 33.828589
CG 49.157235 56.811000 44.738337
CG 64.202591 55.074672 70.440335
CG 58.633479 72.175343 86.281464
CG 44.129908 81.362656 96.066173
CG 42.866403 78.762874 95.106662
CG 44.868010 64.769503 105.246993
CG 41.769308 49.764058 107.659188
CG 52.187973 53.309711 97.225742
CG 47.520487 68.936488 90.878998
CG 44.457710 52.620589 102.731411
CG 47.185548 31.934403 102.905724
CG 50.868846 28.316370 105.769216
CG 46.743716 39.853261 110.034881
CG 42.000226 27.134759 119.580436
CG 37.007867 15.640841 5.342955
CG 53.272255 29.241540 121.420943
CG 42.798734 30.622798 8.545837
CG 41.316935 22.906460 21.227905
CG 34.265618 7.503542 9.584757
CG 42.328187 21.168149 117.729114
CG 44.207959 25.076134 4.051899
CG 51.878494 15.774636 16.832197
CG 47.161926 10.525709 7.895185
CG 57.390377 13.420350 120.026750
CG 61.414676 11.195144 0.711706
CG 60.837602 10.263674 14.560518
CG 76.498500 18.492579 10.410981
CG 65.759390 117.721869 122.575763
CG 75.697218 119.126980 115.767648
CG 71.193679 120.157338 1.925239
CG 68.967689 0.020128 123.679045
CG 75.685217 113.394737 102.553272
50
frame
CG 124.990042 21.713432 104.964689
CG 115.629802 20.330482 113.327021
CG 118.517711 21.424774 6.741021
CG 0.975649 13.258604 29.488859
CG 115.207115 24.870854 22.310558
CG 103.694265 4.667408 18.971560
CG 110.492887 107.089290 33.529345
CG 104.645377 101.017711 41.926633
CG 93.640587 91.571098 43.706306
CG 88.423853 101.484641 55.646472
CG 90.204556 82.485880 79.906523
CG 86.680462 90.926830 77.386251
CG 79.085053 82.057551 82.800917
CG 84.974401 89.395004 106.676565
CG 77.374603 79.904632 22.385369
CG 55.870133 67.227253 22.904468
CG 48.165884 58.635859 45.271895
CG 61.830391 49.805009 52.587722
CG 61.943682 56.433753 56.213501
CG 46.595425 64.201611 42.775403
CG 56.710144 68.771083 41.853827
CG 64.850212 57.791856 66.449855
CG 54.717725 51.506894 79.956317
CG 48.973501 45.683017 87.424026
CG 42.456713 52.598022 86.469898
CG 46.689096 44.449715 103.417092
CG 44.536890 48.037869 108.158234
CG 52.996307 54.949970 113.433018
CG 45.021409 73.392466 115.459580
CG 40.021523 47.866485 3.124456
CG 34.816065 24.690109 3.936522
CG 51.899691 25.733023 111.379246
CG 39.779779 29.822501 114.757978
CG 51.420634 27.329620 113.068281
CG 35.447946 10.076111 115.855152
CG 56.268752 32.335168 101.644228
CG 41.888982 28.559005 122.612548
CG 52.884448 24.607838 18.671028
CG 43.706848 8.486041 20.955186
CG 60.163939 15.791295 10.642523
CG 58.396602 13.379680 16.008072
CG 59.158202 7.069117 19.514914
CG 61.910874 15.087348 0.090664
CG 50.175250 122.800095 105.975813
CG 66.074202 8.747561 101.766296
CG 49.527551 117.433754 121.450462
CG 69.640788 11.972328 124.621181
CG 64.662776 112.981219 118.661385
CG 78.997901 1.020801 123.181819
CG 75.985709 10.079369 18.159150
50
frame
CG 105.885553 9.533854 25.074756
CG 105.736461 13.216917 21.834429
CG 119.321161 119.759574 16.265523
CG 104.671319 124.783540 9.096982
CG 97.931774 108.527793 37.777473
CG 114.091551 110.534400 56.871671
CG 97.412444 105.617299 55.979086
CG 96.919882 101.754420 57.378703
CG 108.995677 100.195102 51.705319
CG 97.635983 84.816071 45.854574
CG 87.188600 114.927181 49.946941
CG 95.417953 98.965407 81.180407
CG 89.433903 107.703137 118.831552
CG 71.267473 103.412161 9.807350
CG 69.272510 92.761242 121.321156
CG 66.632003 89.810235 21.997851
CG 70.003160 82.071989 21.520080
CG 62.291854 77.266782 36.213044
CG 53.835257 68.322855 38.911223
CG 65.941125 54.708191 50.406600
CG 55.187115 31.072560 54.351845
CG 49.419088 31.626771 30.906001
CG 59.457620 37.682738 38.563454
CG 62.288763 44.494648 57.983581
CG 63.512480 45.254091 84.849008
CG 44.449495 54.741595 97.244117
CG 46.278142 48.176500 115.915676
CG 35.677325 46.194153 124.143633
CG 38.647437 31.351105 9.937506
CG 46.362350 55.317961 118.024901
CG 50.019923 62.773524 114.794451
CG 35.230613 47.312467 2.150130
CG 50.765395 27.469819 107.204758
CG 35.286500 20.660333 102.523357
CG 58.711936 39.440266 97.618051
CG 43.886222 15.958609 119.681926
CG 63.626252 21.436110 122.388721
CG 58.385973 17.152682 121.388143
CG 69.285120 24.060547 4.784879
CG 50.855570 12.521872 19.643572
CG 61.218442 11.639755 10.320090
CG 54.904462 8.055299 119.015556
CG 53.369593 122.146275 121.115840
CG 63.405990 6.438644 124.837969
CG 38.312012 113.962111 120.723145
CG 68.546475 15.620155 101.317224
CG 53.106877 121.454706 112.705553
CG 67.037912 23.989287 9.947191
CG 66.928229 11.733012 19.262853
CG 69.673382 3.125287 11.901975
50
frame
CG 97.704205 112.363612 56.918453
CG 101.390840 103.381582 50.698387
CG 79.179011 107.760185 53.395073
CG 93.095103 98.579379 57.784854
CG 107.500136 86.152574 46.635709
CG 89.928711 91.669438 45.013373
CG 101.887809 102.668875 55.330690
CG 106.539963 101.543728 56.955353
CG 88.137202 116.882452 67.620833
CG 103.922809 119.175023 87.081126
CG 108.208544 105.654366 96.498349
CG 80.041718 111.697691 102.688425
CG 76.469014 115.226341 91.205941
CG 81.142280 99.865987 108.634956
CG 78.127944 111.031453 4.281122
CG 82.630422 109.773845 6.616507
CG 74.391572 104.101395 2.104182
CG 67.466801 90.571381 10.407248
CG 69.574131 59.866337 20.789755
CG 59.589134 41.604987 25.410895
CG 60.894594 44.495941 29.794951
CG 64.532456 41.084110 52.533748
CG 58.754551 30.574750 56.647358
CG 50.374820 37.342699 49.467032
CG 53.430367 37.118723 63.811152
CG 60.486162 37.836332 81.433506
CG 50.762029 37.932804 100.558535
CG 44.909390 44.822628 106.061108
CG 48.135757 47.428547 106.473792
CG 36.451915 37.143296 123.154858
CG 44.623760 35.187420 116.127451
CG 45.825839 50.493869 100.446460
CG 49.252960 65.785421 110.166591
CG 51.008613 48.152485 0.580521
CG 57.367986 25.729161 124.285295
CG 57.400237 21.360302 117.768149
CG 66.983219 21.788404 108.373700
CG 57.578999 13.816985 116.638639
CG 63.993058 16.208785 112.312743
CG 66.437466 13.467648 101.438307
CG 54.917132 7.362085 108.650265
CG 56.246456 6.751301 0.448817
CG 48.069758 124.264682 2.610237
CG 55.295557 8.839253 120.277770
CG 65.531843 10.365952 4.406234
CG 58.151035 12.676565 20.115859
CG 54.244315 11.728173 13.862188
CG 61.083538 11.560101 121.588638
CG 48.620458 8.671709 123.512810
CG 55.430717 21.990272 8.601884
50
frame
CG 77.970371 73.391798 78.575789
CG 76.418839 75.346852 92.577704
CG 93.879487 75.272956 88.468029
CG 87.465062 72.050072 84.866112
CG 76.637135 104.327562 73.001557
CG 92.534864 93.465972 60.973812
CG 95.725627 94.235750 58.495172
CG 91.508468 113.705008 78.847904
CG 106.527135 104.740869 100.863703
CG 85.173766 124.834046 109.121936
CG 73.023610 118.621863 114.033423
CG 94.626591 120.730673 107.365868
CG 96.090465 103.655631 112.643516
CG 90.818533 0.983294 96.968583
CG 86.044769 117.380550 97.672626
CG 77.589339 100.394222 95.311055
CG 77.461854 86.594576 3.864096
CG 82.821742 70.543810 120.445682
CG 77.137505 81.877543 120.704377
CG 69.892267 80.505089 9.897677
CG 72.271918 62.359199 26.455475
CG 61.216679 47.599296 41.526238
CG 54.925410 49.552243 54.739573
CG 62.128208 31.058155 80.510178
CG 47.192546 27.904456 69.315900
CG 48.555867 24.809704 61.395575
CG 55.020956 36.409175 52.896453
CG 64.878869 28.565591 74.661834
CG 50.966337 41.609716 84.120007
CG 53.427739 41.884095 83.432133
CG 42.409597 48.497261 102.521943
CG 57.024402 38.422929 123.232038
CG 48.831249 28.068096 7.731773
CG 70.969956 50.267321 114.074741
CG 52.042323 47.417530 122.978664
CG 71.215507 48.648531 116.450054
CG 49.410357 19.827812 118.408386
CG 70.241560 21.655447 96.007257
CG 50.033509 2.702979 89.407524
CG 59.139310 7.682129 99.168605
CG 57.799511 7.811129 104.944453
CG 61.389859 10.038370 103.641906
CG 71.555683 27.506880 116.463710
CG 51.283774 8.633982 20.476666
CG 61.915990 25.323364 19.457855
CG 46.578798 2.123516 13.842095
CG 65.096257 25.311328 14.011551
CG 39.096656 6.699858 19.627953
CG 50.548729 25.575190 2.277143
CG 37.207350 14.927614 109.743526
50
frame
CG 70.846031 38.472575 0.627439
CG 70.108053 47.306330 107.234644
CG 71.122919 62.754845 100.768900
CG 75.572355 84.203698 92.331784
CG 86.316945 70.969378 104.346600
CG 86.958679 99.146538 121.129792
CG 76.688506 110.692589 123.909228
CG 77.635475 104.549538 115.133101
CG 72.552268 109.688004 101.826195
CG 85.185084 98.808470 99.793871
CG 98.713713 116.165884 107.045988
CG 90.179482 123.277864 109.437533
CG 86.127012 9.003520 111.512623
CG 89.885435 108.113224 107.573640
CG 93.278624 82.425802 101.123147
CG 91.692518 87.077110 101.961093
CG 89.849685 90.203177 79.161638
CG 79.198032 97.387034 103.607749
CG 78.085711 85.293595 7.195172
CG 86.715276 77.822811 13.532880
CG 68.386553 82.983062 24.579200
CG 67.259304 75.419108 31.982938
CG 66.365093 54.035830 43.221711
CG 53.517657 45.831442 40.935461
CG 64.575120 42.771314 51.936337
CG 60.837796 32.405794 65.392255
CG 53.235401 23.022394 61.701663
CG 47.984798 32.150496 38.008174
CG 59.787519 27.333182 51.305478
CG 73.324744 35.725140 77.011709
CG 71.422812 32.080451 94.288213
CG 62.173642 38.549736 100.620410
CG 65.802065 38.504930 103.775144
CG 53.455693 25.181738 122.569133
CG 64.795209 33.110310 112.853383
CG 56.709396 33.386485 102.172075
CG 59.921824 42.674758 96.388554
CG 50.894726 30.353811 104.717332
CG 61.217540 25.218133 111.325018
CG 55.673836 15.801453 101.963648
CG 68.081329 21.519416 100.550628
CG 59.648552 19.638395 118.915909
CG 57.912372 15.740881 0.523269
CG 69.218724 24.988565 115.479109
CG 50.706032 16.789608 2.678508
CG 54.283118 29.508747 12.572718
CG 35.631282 14.531064 8.419797
CG 43.059692 27.039834 123.676086
CG 40.231319 16.426286 4.259385
CG 40.897387 15.466688 15.143566
50
frame
CG 64.361046 41.490642 124.628218
CG 71.528254 45.914130 5.326845
CG 62.260607 44.961972 13.364315
CG 70.177274 62.006269 25.337711
CG 70.157268 80.879579 26.055430
CG 57.108549 85.383549 19.413892
CG 68.111738 84.319629 21.137377
CG 76.975416 90.014051 14.766666
CG 72.823072 111.528409 6.064247
CG 83.135709 114.346613 117.679967
CG 82.279157 112.504547 98.446143
CG 82.272765 92.065234 101.416097
CG 94.184210 85.832658 93.712184
CG 91.275822 85.049534 110.063670
CG 87.973665 111.610663 102.514596
CG 93.235810 101.149172 108.082008
CG 91.036020 89.062487 118.379771
CG 94.349396 89.803417 117.982542
CG 85.705338 91.297278 107.760989
CG 68.936808 91.380535 3.192060
CG 78.183317 75.299238 17.132682
CG 78.203165 73.912686 17.387144
CG 74.369449 77.708573 16.574127
CG 74.044979 76.272245 18.933930
CG 66.036192 51.601569 31.620074
CG 58.266333 52.487165 20.163704
CG 68.144132 41.420432 46.024686
CG 71.887585 32.962153 75.935592
CG 73.299950 22.737847 70.845750
CG 56.250350 21.023151 57.882649
CG 78.339511 20.809015 53.046413
CG 74.917602 21.964420 69.019436
CG 77.409542 32.949229 77.726513
CG 60.094226 28.999626 79.449292
CG 62.893562 25.318378 81.735581
CG 43.749520 14.281883 107.258405
CG 66.975812 29.673257 107.557972
CG 53.070568 33.898534 110.326314
CG 67.070671 55.397007 107.406663
CG 62.198488 48.645392 124.705486
CG 53.243099 31.881874 8.543214
CG 63.858607 29.968336 115.026552
CG 51.827082 17.229528 109.040703
CG 49.942661 29.841257 114.356221
CG 45.679982 17.993580 110.000609
CG 51.673567 34.016119 101.466608
CG 38.501382 22.185287 116.481282
CG 49.333147 26.338583 8.966701
CG 31.137673 12.273164 20.172047
CG 45.232261 26.861138 18.108752
50
frame
CG 65.563903 56.445753 21.089170
CG 58.383606 55.282689 43.038666
CG 68.934054 64.150808 51.171660
CG 51.643726 46.788745 55.318554
CG 41.634665 57.695934 51.544897
CG 65.018809 53.583410 44.090105
CG 65.595090 78.292239 28.012843
CG 60.494269 98.377296 21.630031
CG 82.821303 78.585553 18.848834
CG 70.012580 86.378635 12.411681
CG 68.045346 72.981404 3.229396
CG 86.730235 84.161826 110.131511
CG 80.407756 82.718333 103.535943
CG 86.279850 96.623054 92.938199
CG 93.181167 83.276997 117.628317
CG 88.855798 91.815795 122.430963
CG 86.575531 110.714602 9.529273
CG 82.020737 92.119231 4.589171
CG 87.608701 83.198358 9.587549
CG 92.119143 81.706395 117.322857
CG 87.664250 89.587161 100.572491
CG 77.324165 87.634802 115.482292
CG 78.324118 77.251189 0.727616
CG 82.227255 71.546490 6.457156
CG 77.519341 84.057611 4.278762
CG 89.109620 68.720299 38.189748
CG 81.641749 58.226412 36.394564
CG 75.186220 39.517889 35.148433
CG 75.174722 38.383307 49.600548
CG 86.656610 20.945719 62.897086
CG 64.012515 22.841007 58.380100
CG 65.606542 15.312920 36.312906
CG 61.428908 1.485331 36.088633
CG 79.322565 17.257443 49.274990
CG 63.303852 23.338222 79.001499
CG 78.790126 41.140219 78.362653
CG 51.616900 28.931117 100.557731
CG 70.739588 40.910276 119.654386
CG 49.608076 27.295689 7.051279
CG 60.181806 45.599038 121.667252
CG 56.469124 55.610706 111.951432
CG 43.381135 48.979636 121.733780
CG 49.373925 49.616200 116.552775
CG 39.012377 24.753107 103.460202
CG 47.839772 38.484066 98.984565
CG 33.800991 10.597159 116.183445
CG 56.143424 30.064641 119.687467
CG 38.612218 20.959221 122.821570
CG 56.235008 42.383720 1.681693
CG 35.489167 20.223386 10.983155
50
frame
CG 58.008009 74.856502 99.320809
CG 52.509553 65.198688 68.919897
CG 39.903544 57.874429 60.933742
CG 54.838059 63.041284 55.006847
CG 70.368778 51.474634 52.009944
CG 52.797884 67.639229 53.989448
CG 54.412637 52.409727 51.104429
CG 65.694295 37.879660 41.108418
CG 51.393388 52.169608 24.320450
CG 68.113790 52.421598 15.482425
CG 84.413586 63.210333 20.377039
CG 66.981961 79.236996 13.489729
CG 72.836889 83.482879 21.055511
CG 80.604469 81.032644 12.323386
CG 76.341668 85.506855 0.294488
CG 77.968592 88.616304 124.205113
CG 86.626392 69.510558 121.009342
CG 89.078197 90.527884 1.910065
CG 86.732664 103.008716 121.897729
CG 91.175929 91.409510 117.839191
CG 85.808865 84.379465 124.194951
CG 97.625121 81.026909 103.514682
CG 93.346773 91.159822 98.704282
CG 87.868360 84.750612 1.592933
CG 100.565364 73.982875 17.106839
CG 92.235959 66.217117 10.588662
CG 89.320461 71.487944 12.809726
CG 97.135386 66.286072 21.408921
CG 80.146101 49.555383 20.519637
CG 73.205136 42.680222 14.237225
CG 71.616684 18.619816 29.026751
CG 78.152154 15.844298 50.374211
CG 66.372429 23.994960 56.237751
CG 65.407780 17.913461 48.605589
CG 71.162084 17.591012 47.472615
CG 80.451866 28.781662 70.503155
CG 71.056940 36.014133 93.615753
CG 63.526567 38.142197 90.763256
CG 57.971249 40.554346 99.962869
CG 43.761203 35.217499 112.728712
CG 44.860914 40.281038 116.367595
CG 42.825876 47.322826 106.566138
CG 41.137111 58.813512 106.291777
CG 42.772811 51.456005 121.830399
CG 43.564161 39.436822 6.919953
CG 46.876417 38.523543 121.881343
CG 42.712384 35.904984 113.714583
CG 41.101496 25.911123 114.471426
CG 44.440393 22.458206 110.536984
CG 55.894009 41.735134 104.073109
50
frame
CG 28.453523 65.308220 102.160160
CG 50.863963 79.378929 114.362401
CG 62.411961 69.376251 96.834729
CG 56.054154 75.178789 70.925196
CG 47.665682 64.552452 61.538883
CG 58.372489 39.326167 49.661564
CG 59.150629 27.997875 48.106204
CG 54.153249 27.973463 47.062307
CG 62.981270 33.543635 52.013672
CG 62.100865 36.699780 48.040140
CG 50.018789 60.937694 36.735210
CG 68.302383 48.327868 49.632583
CG 76.519254 64.314077 36.436302
CG 58.718465 68.391759 45.955018
CG 67.954848 74.272734 26.687751
CG 80.377822 71.540102 13.886284
CG 75.992891 87.211958 118.202313
CG 85.397687 82.296001 109.680441
CG 89.158353 69.758154 107.937017
CG 87.373706 92.958635 117.945010
CG 99.675250 98.185097 116.336930
CG 97.421529 92.579868 9.064176
CG 106.969498 76.589498 19.178835
CG 112.348172 78.445643 108.005287
CG 99.005948 75.084887 105.701207
CG 96.839204 84.624632 108.615853
CG 101.233204 63.569747 123.720999
CG 83.215227 64.968035 116.677934
CG 92.239977 56.668767 118.020959
CG 83.415550 55.045273 11.950863
CG 88.587442 57.022251 17.350609
CG 69.144193 47.905935 26.383108
CG 87.226456 35.441827 40.883583
CG 75.392244 31.215953 71.290386
CG 76.670218 37.441257 72.796281
CG 45.144136 14.343706 64.207447
CG 76.821336 27.890925 42.584882
CG 53.574302 24.475989 65.567898
CG 63.491716 45.774387 72.025560
CG 52.200257 44.183929 76.040700
CG 40.990820 39.871319 92.891920
CG 45.528950 40.127863 113.607151
CG 39.833443 25.693672 6.157827
CG 48.969910 59.390447 0.136110
CG 38.017828 55.668420 118.302310
CG 48.391683 66.754600 119.272727
CG 34.740479 35.027722 122.093808
CG 62.838162 58.113753 102.615420
CG 43.491752 38.791431 92.906747
CG 48.281465 26.309661 90.029124
50
frame
CG 57.795717 76.064684 104.478337
CG 42.215892 65.522733 83.737873
CG 38.699499 67.948886 81.323633
CG 52.660172 55.690639 83.226355
CG 62.161747 48.616495 71.579015
CG 54.209278 53.283885 62.664563
CG 54.763420 49.624578 55.900818
CG 61.441281 40.774695 50.595291
CG 54.536810 41.985285 42.782672
CG 59.309931 45.000235 45.595803
CG 72.056203 41.727319 49.236404
CG 60.185881 59.091092 39.316551
CG 57.396285 61.823995 38.421708
CG 77.018913 63.699470 24.505269
CG 75.392358 71.919801 18.576899
CG 70.621118 78.227468 12.484391
CG 80.879731 70.709214 8.472291
CG 82.375022 80.743370 2.924389
CG 86.756483 96.143196 121.695721
CG 94.676759 82.614268 119.346656
CG 94.473492 75.956393 1.775949
CG 101.812774 82.374583 113.846599
CG 98.715767 89.508183 105.199806
CG 95.383770 83.991668 2.499473
CG 104.178195 75.726935 3.806725
CG 99.462907 65.279334 117.871969
CG 90.914642 71.687886 110.149159
CG 96.383061 65.946475 123.915572
CG 87.686431 62.315546 9.404029
CG 84.056286 55.800736 7.971724
CG 81.753716 45.449053 20.473009
CG 87.726723 43.606192 39.357051
CG 73.131915 45.519984 46.833207
CG 67.523605 35.430188 39.897614
CG 69.819183 26.251709 45.028759
CG 78.421342 37.018388 62.572944
CG 56.715688 34.582148 78.495675
CG 59.576459 36.130342 67.272739
CG 52.325065 29.017949 71.212970
CG 51.266120 32.910867 90.073279
CG 53.867714 38.656574 100.052805
CG 47.110422 45.848498 101.070905
CG 45.200274 57.235442 102.720565
CG 40.811975 42.411075 116.109977
CG 45.374418 41.404247 124.081558
CG 46.310278 45.094548 114.517129
CG 51.364387 57.866612 103.100105
CG 38.180763 37.452355 106.804254
CG 48.886205 37.424562 105.811962
CG 50.136260 47.441256 99.427677
50
frame
CG 52.491715 63.830100 59.502543
CG 59.832732 55.967428 73.986735
CG 57.842178 50.479184 77.545329
CG 42.209021 46.164555 73.970797
CG 44.036268 54.150585 78.498704
CG 56.021750 57.033611 82.694078
CG 58.757057 63.379097 68.879641
CG 56.461658 70.984346 60.268940
CG 65.027417 60.616128 54.687324
CG 61.740011 60.304054 42.407254
CG 59.090122 50.662722 39.142858
CG 69.336803 55.421141 24.875404
CG 74.700602 51.399839 25.177652
CG 68.283618 66.694049 10.773901
CG 71.303428 60.523876 17.605413
CG 81.291783 69.527604 15.764067
CG 82.194769 81.690457 22.747546
CG 82.019877 79.704583 23.478934
CG 87.477293 71.928764 24.526710
CG 92.924786 73.710627 2.752612
CG 89.433024 84.897497 109.721534
CG 89.354855 74.346362 112.342850
CG 90.225051 72.835404 116.809426
CG 91.300740 71.499518 118.064159
CG 88.083104 81.405337 114.163137
CG 93.541048 71.044035 14.806407
CG 94.329679 69.263701 17.474890
CG 94.599227 59.632759 10.489182
CG 85.350599 58.902186 13.438514
CG 95.521052 53.803469 28.603541
CG 77.465976 50.918659 37.122050
CG 76.892120 44.484138 22.454518
CG 69.660567 36.698368 22.681559
CG 85.181172 48.142338 32.406147
CG 60.096191 47.887676 50.250822
CG 71.769811 51.491670 46.962304
CG 55.466473 33.824994 69.039519
CG 68.534444 41.195847 89.790424
CG 52.026692 32.158216 105.057681
CG 55.338447 36.785307 91.605023
CG 53.958409 44.338479 82.801383
CG 50.407006 39.667709 90.341599
CG 56.317087 46.353416 92.338387
CG 48.559914 38.392823 88.928363
CG 54.110940 51.529023 85.866625
CG 37.317648 21.648553 101.421155
CG 51.271743 35.156832 108.976772
CG 42.149243 40.852043 110.554907
CG 51.474728 63.249966 111.335412
CG 40.942460 49.971960 123.085094
50
frame
CG 58.448334 28.465825 48.641172
CG 53.757447 45.872728 49.842351
CG 56.098084 47.910914 56.528678
CG 65.901751 62.375943 71.710737
CG 54.572101 63.361105 74.507025
CG 45.615318 64.465864 67.460162
CG 52.588909 66.943754 78.253152
CG 59.007589 69.854403 73.871248
CG 60.555785 78.307713 61.711216
CG 67.715445 73.462413 45.057334
CG 68.184257 80.243416 23.260968
CG 69.745865 60.056412 23.690861
CG 72.095540 60.712280 10.116310
CG 74.535467 52.656681 27.279049
CG 81.630292 67.062917 22.561988
CG 78.820816 65.061067 28.488647
CG 78.639043 61.182165 26.273208
CG 90.933818 62.531970 18.534610
CG 85.411175 67.396661 5.320860
CG 75.181228 75.234993 17.417753
CG 84.226312 63.270300 17.633428
CG 80.479950 69.429880 7.260271
CG 80.862570 69.293165 0.973361
CG 85.205483 67.689816 119.888075
CG 83.370648 58.379882 13.494642
CG 82.887055 72.627746 3.807961
CG 87.007898 61.898369 20.707428
CG 83.927913 63.803887 42.923803
CG 93.444944 53.991892 43.776679
CG 75.071973 50.847867 27.109383
CG 86.077090 51.689974 11.759054
CG 79.467251 55.787292 26.944991
CG 80.646325 59.616280 36.405554
CG 61.417884 52.644033 38.944329
CG 75.737841 52.550702 42.034304
CG 54.808667 40.910162 68.344347
CG 74.232088 56.738643 68.179285
CG 52.714696 43.766492 74.051543
CG 68.889521 55.938365 73.289250
CG 62.866842 48.046192 89.393431
CG 54.518705 35.714343 96.852009
CG 61.674489 36.942430 78.261863
CG 53.992846 24.268195 70.151750
CG 58.015309 35.159313 73.854410
CG 48.647553 22.354337 81.331028
CG 59.913481 54.688202 82.341213
CG 39.935560 41.960883 96.730394
CG 53.259860 49.017269 113.937875
CG 34.359301 36.428015 2.071846
CG 46.624020 57.937884 120.238995
50
frame
CG 57.558577 35.146094 49.428564
CG 62.882952 30.014902 46.470562
CG 58.090414 48.728212 47.045336
CG 54.155466 57.821164 43.458705
CG 66.446194 62.773207 51.130350
CG 69.615781 74.039715 65.951484
CG 57.112414 75.923940 59.423685
CG 56.789836 71.131519 51.827192
CG 58.189212 77.928868 46.486085
CG 64.296505 78.082731 49.895313
CG 74.638879 75.736183 44.665374
CG 72.716389 83.494451 37.998100
CG 73.584742 85.213571 36.745203
CG 82.919988 69.177816 29.801737
CG 77.683927 55.904597 26.796740
CG 82.903281 49.261275 23.183525
CG 87.183740 52.353153 8.955305
CG 68.877229 57.627315 17.199645
CG 73.929645 57.653070 25.148833
CG 83.131494 50.885509 19.190918
CG 71.416760 58.750691 22.946956
CG 74.787513 61.560259 28.698044
CG 77.371097 55.071555 32.171692
CG 70.998708 62.644633 31.968835
CG 79.910788 59.190522 23.320835
CG 77.923412 48.529554 32.016009
CG 75.838649 53.154337 34.222544
CG 73.599627 56.996703 17.723511
CG 73.694939 58.931814 19.686506
CG 81.242479 65.004360 37.031825
CG 82.733395 62.869150 49.008389
CG 72.384733 60.645423 41.796955
CG 76.297589 62.929751 37.940220
CG 67.719879 55.093016 58.666265
CG 73.291899 58.127634 61.706725
CG 67.656145 59.116904 56.382291
CG 66.445954 59.960826 54.728794
CG 67.980466 60.139423 59.512006
CG 65.345232 51.251012 61.984748
CG 61.743143 44.382349 58.605807
CG 72.946110 41.415221 56.949116
CG 62.550574 33.918052 76.018090
CG 56.804229 29.294801 84.112277
CG 61.351537 35.745564 76.408846
CG 53.451379 36.678127 81.617897
CG 56.295254 40.876180 90.900884
CG 51.279417 42.885070 95.974323
CG 46.231320 54.106106 93.750640
CG 49.278602 47.590747 100.511266
CG 42.444840 30.793960 116.054877
50
frame
CG 62.845490 50.533921 44.180015
CG 57.914841 54.086771 45.723060
CG 67.528464 46.286557 42.819024
CG 68.120701 42.879354 41.670243
CG 59.628022 61.535327 33.374701
CG 63.387404 62.186853 22.939241
CG 75.802053 70.938718 22.137020
CG 72.888901 84.863121 37.429336
CG 72.363349 71.585887 44.365342
CG 64.321928 80.688946 43.304005
CG 61.333170 82.132798 59.963101
CG 77.157212 85.164733 57.363315
CG 83.071376 67.663818 58.711347
CG 75.685970 82.343063 34.752267
CG 80.536662 70.736722 26.283034
CG 74.429037 64.026329 15.098386
CG 66.980783 53.084972 30.649559
CG 79.938712 39.951193 23.643996
CG 73.073230 40.637877 25.355791
CG 64.566671 46.951842 31.668850
CG 72.490673 48.785280 36.991597
CG 72.247474 40.895865 43.371725
CG 67.399558 52.327636 47.927614
CG 73.556734 39.257966 61.168071
CG 64.351755 49.392957 55.279395
CG 64.800337 50.143604 45.456888
CG 66.008268 54.999616 21.278123
CG 74.805364 50.589915 30.515051
CG 65.674170 63.493644 38.190204
CG 71.710268 64.253631 34.572717
CG 59.027723 69.126586 46.214038
CG 75.448467 66.571442 66.201094
CG 66.945171 57.292125 78.022896
CG 86.524795 71.397840 54.241884
CG 61.911803 67.846247 52.857969
CG 83.875896 74.532461 47.809240
CG 63.549033 52.526499 55.211504
CG 77.904459 57.490297 41.172116
CG 67.113427 45.533609 41.010589
CG 73.086822 46.468253 44.033111
CG 61.578536 45.319824 52.999948
CG 63.849562 43.939564 56.003821
CG 74.296129 57.366191 66.749676
CG 55.606428 37.969635 94.998518
CG 65.157184 53.870005 96.061219
CG 44.248463 30.431482 89.897733
CG 62.519935 44.412057 85.034801
CG 48.248869 18.968676 92.651806
CG 56.695264 38.056522 84.083428
CG 51.515791 45.012804 71.781418
50
frame
CG 66.512216 65.935045 39.278487
CG 71.533573 63.128000 36.764504
CG 62.069465 62.640635 31.384761
CG 67.611772 65.335275 24.199693
CG 77.383778 49.159908 15.947463
CG 73.355629 56.135584 13.548813
CG 70.390220 60.245845 22.232630
CG 74.772855 62.280058 15.597179
CG 76.880839 83.700558 31.848281
CG 85.736145 81.430848 50.355583
CG 83.357505 72.711771 45.976006
CG 66.403225 67.419440 47.313580
CG 65.512519 79.573801 37.707369
CG 71.802255 66.922377 52.685431
CG 69.307894 71.898427 53.885208
CG 70.683871 69.708003 48.016593
CG 71.930621 59.472393 35.257182
CG 65.666366 56.328097 36.838030
CG 66.841566 43.979768 40.170678
CG 70.912640 33.918780 48.250650
CG 66.969400 27.979202 52.836432
CG 62.250346 34.971776 60.273239
CG 63.855603 31.040643 63.126687
CG 60.045470 40.604279 48.263618
CG 60.012118 39.506000 51.934303
CG 64.895370 49.307900 50.679839
CG 60.300314 52.668251 67.982152
CG 54.013806 64.673434 62.001832
CG 62.749960 58.164801 51.015964
CG 55.809010 55.389202 63.069018
CG 66.980126 57.702681 62.204910
CG 67.272603 70.535446 50.546441
CG 66.512075 81.932309 50.212610
CG 66.010600 74.056044 63.378844
CG 82.417139 63.287563 60.845267
CG 71.176046 54.765477 49.141482
CG 84.305202 66.003300 32.358199
CG 70.711562 50.287474 39.975347
CG 74.067275 55.565643 42.513750
CG 70.696342 55.761051 43.992577
CG 71.268557 58.050978 52.198003
CG 70.253587 60.833696 62.578577
CG 57.400409 52.214495 68.949671
CG 63.934651 58.583438 62.120921
CG 63.208693 40.563675 72.297659
CG 69.021806 41.548167 89.694016
CG 52.977435 27.932322 86.221285
CG 64.507912 40.820235 65.232717
CG 55.616942 29.848888 59.106254
CG 65.817025 30.028054 61.210091
50
frame
CG 73.027809 75.223191 22.625265
CG 71.790642 74.361326 16.841942
CG 80.437264 73.659292 12.322339
CG 76.258767 69.056989 9.250855
CG 71.743301 69.836056 19.180278
CG 79.764591 64.312591 24.336242
CG 79.820616 61.092167 21.524203
CG 83.254798 58.418797 32.576639
CG 82.894926 53.494458 22.905691
CG 75.773040 52.877376 13.696009
CG 77.969823 74.327402 16.435141
CG 82.296148 70.425321 35.629845
CG 70.395313 67.560355 48.385870
CG 60.875247 62.802062 53.479971
CG 58.515530 62.900017 50.434483
CG 63.530981 55.999428 69.874288
CG 72.728252 56.678267 63.542590
CG 76.204013 99.831852 59.513365
CG 70.782815 25.339348 62.601426
CG 63.111918 39.891444 63.373978
CG 57.673993 33.189410 65.475472
CG 60.090292 28.579481 54.209958
CG 58.139978 24.104753 50.833590
CG 54.334743 38.391680 58.822522
CG 60.869823 41.542347 67.172751
CG 49.007676 47.694333 73.329287
CG 54.259267 48.280363 76.427611
CG 52.627192 47.951751 82.289124
CG 53.393329 51.401986 94.609884
CG 58.647945 68.702805 74.439365
CG 64.352235 71.864296 57.523649
CG 51.588424 63.014829 59.325651
CG 76.598679 59.444917 46.145588
CG 60.681138 55.674944 41.043505
CG 72.157150 73.494555 32.828337
CG 65.967948 59.277362 50.507182
CG 77.804816 58.801177 55.059163
CG 69.064060 89.456927 54.836310
CG 67.715492 15.048146 58.724399
CG 65.617744 92.133419 63.632102
CG 74.340762 66.801560 57.390388
CG 66.124075 62.616825 53.306421
CG 67.329097 49.289533 55.202981
CG 75.752234 52.078951 58.837668
CG 54.878485 39.254684 56.226567
CG 72.885146 56.530568 35.348821
CG 69.912712 39.886398 43.393947
CG 73.827134 42.755293 59.628664
CG 71.816126 27.891693 62.764841
CG 65.088848 23.308310 55.353662
50
frame
CG 84.458545 81.190117 114.194468
CG 81.760710 82.178720 121.883843
CG 79.778580 79.728620 8.249227
CG 84.259023 75.609659 20.445049
CG 85.659079 82.877794 18.220036
CG 82.003071 72.973523 24.105155
CG 86.950919 62.898705 24.937635
CG 80.359141 57.825248 16.235203
CG 78.755816 48.667127 11.537026
CG 79.678351 54.884369 17.217950
CG 69.692012 39.915566 29.335481
CG 67.663355 53.179305 18.253038
CG 74.011359 52.188079 32.738331
CG 74.057056 62.838679 45.087014
CG 75.264203 54.995330 64.846027
CG 67.942943 74.303743 55.324070
CG 57.982379 68.731308 80.481892
CG 72.283794 60.917320 84.010907
CG 64.552450 57.019531 84.384064
CG 63.685965 89.242480 68.651531
CG 64.569398 18.075951 58.147839
CG 55.102983 36.915447 64.653859
CG 52.381565 50.530251 70.465058
CG 54.976370 30.484022 80.046663
CG 44.303954 36.941941 77.473749
CG 50.697577 34.116387 89.880763
CG 48.870338 42.525105 88.411048
CG 57.023889 49.830993 88.447061
CG 54.000153 64.677895 75.235772
CG 55.231141 52.038836 79.166821
CG 51.029038 52.064112 80.448366
CG 69.448930 56.652090 59.999394
CG 50.020884 55.585209 50.251791
CG 68.427499 58.960595 40.971997
CG 52.816579 50.442608 49.296549
CG 68.465592 102.019175 43.172223
CG 45.435302 12.038991 61.776438
CG 66.294322 120.974143 72.977209
CG 59.315118 108.833384 80.506048
CG 70.797932 114.081202 63.336658
CG 61.669472 124.999338 62.856533
CG 72.476485 81.049676 59.063639
CG 77.665024 68.153868 42.962814
CG 63.454590 48.869517 30.203388
CG 89.558904 64.250796 21.898656
CG 67.764036 36.772138 35.131454
CG 81.215942 52.364066 30.845006
CG 69.755125 28.679417 27.485293
CG 79.912394 40.866745 38.396387
CG 80.243048 40.591916 59.573402
50
frame
CG 88.917643 86.382104 110.286627
CG 96.421312 82.841682 117.857447
CG 90.540557 86.888368 122.839145
CG 87.665238 89.667964 6.865714
CG 92.300670 67.425268 15.865775
CG 88.891052 71.213671 9.088463
CG 80.088402 71.263933 7.852934
CG 80.075548 64.406615 10.494538
CG 73.715668 59.812770 29.687542
CG 70.285022 47.704180 27.649837
CG 77.008200 40.903072 21.833469
CG 72.636377 35.931689 37.099135
CG 72.249397 40.758784 36.902055
CG 76.167725 51.930485 32.533014
CG 73.109593 68.427420 49.468162
CG 78.679749 57.693705 71.098889
CG 75.247056 65.869878 70.410816
CG 47.569743 66.188455 70.019790
CG 56.366134 68.623755 69.779659
CG 62.488438 56.023216 86.042960
CG 57.217567 123.936507 93.400488
CG 59.338205 34.614764 93.003516
CG 53.825855 19.619363 91.574649
CG 46.628440 42.264711 89.190134
CG 48.714451 41.955484 97.988365
CG 55.675362 41.177731 86.056535
CG 51.279149 47.077189 82.051557
CG 47.467508 45.633359 78.879819
CG 53.588453 34.686770 76.866518
CG 58.122976 42.803788 72.646755
CG 54.359410 45.742259 63.392199
CG 52.831137 46.759051 66.861704
CG 48.446727 55.995251 78.194243
CG 53.856948 96.452089 73.934280
CG 46.294442 6.483205 73.899250
CG 46.238976 113.880509 74.244410
CG 56.469863 95.161563 65.780640
CG 51.748440 124.490430 56.641351
CG 56.145766 109.356237 55.405115
CG 60.972723 116.026401 71.160734
CG 69.261639 94.208204 61.227013
CG 69.009249 117.007313 39.475140
CG 72.645784 122.603791 34.020049
CG 82.456436 88.574187 32.088154
CG 80.889190 60.887707 25.586946
CG 82.018536 46.989923 20.107432
CG 82.026657 43.396575 22.382068
CG 86.827456 54.011601 33.146179
CG 82.403282 54.281284 27.413149
CG 86.538187 50.516771 7.925465
50
frame
CG 103.557872 87.865259 4.166965
CG 92.781488 92.128901 120.092284
CG 102.297618 77.380601 117.863894
CG 100.842318 70.134991 107.817398
CG 84.190459 83.108760 108.776727
CG 84.222261 76.074232 122.616603
CG 81.473089 64.788694 15.413336
CG 76.769718 63.023098 26.911353
CG 78.517283 59.112013 15.201312
CG 76.166375 49.447450 28.993061
CG 73.279744 61.402440 40.518021
CG 81.096636 51.118430 39.136126
CG 77.341990 55.596974 41.998878
CG 73.448923 37.498043 64.388633
CG 72.302538 41.995044 43.253686
CG 57.734295 51.128724 43.092547
CG 63.654070 58.391999 42.597895
CG 78.040473 57.949084 68.106749
CG 63.849132 63.196911 83.433069
CG 44.437990 80.247640 90.861674
CG 47.710158 66.783405 103.493100
CG 51.440026 57.406817 110.256186
CG 54.891072 12.039503 115.289876
CG 59.761496 30.273502 104.111629
CG 62.615988 33.299339 89.535964
CG 42.866927 51.332922 83.448139
CG 54.035373 34.799362 82.543771
CG 56.751924 30.811605 70.968850
CG 50.976099 33.761620 72.521090
CG 43.492060 38.418292 65.514294
CG 53.401970 46.757810 76.023460
CG 38.255997 84.945684 88.863669
CG 55.903841 123.670421 83.729488
CG 27.689529 101.193971 101.304546
CG 53.667734 94.964913 92.285173
CG 40.191249 109.352219 86.438064
CG 53.275184 114.033023 69.846564
CG 46.143878 88.982224 69.259846
CG 62.435971 102.992483 50.271321
CG 53.234148 107.480533 28.122902
CG 65.516326 118.175442 26.027397
CG 71.009193 113.734055 44.540161
CG 73.541709 82.477820 43.209267
CG 83.757826 116.217661 31.968154
CG 67.505109 102.297764 36.887631
CG 98.136105 109.274187 29.098005
CG 85.779071 70.239745 23.372826
CG 94.446554 68.012976 124.884585
CG 91.985712 54.557994 116.939233
CG 87.299835 66.674454 2.224424
50
frame
CG 96.325008 85.037294 117.713277
CG 103.986559 77.510420 120.181944
CG 92.677688 85.435405 117.594749
CG 87.081325 85.623516 123.795272
CG 93.831658 68.738987 4.745844
CG 87.415698 67.459918 4.418626
CG 81.849190 71.179500 1.945013
CG 81.219149 63.463750 9.534825
CG 77.280183 60.590624 30.682021
CG 78.258175 62.213047 30.865354
CG 79.573728 51.008092 29.698827
CG 72.933089 50.031890 44.062368
CG 72.928235 46.248899 46.279325
CG 70.748708 55.811980 34.290802
CG 68.237556 55.040528 49.868672
CG 77.099651 49.755687 61.278483
CG 68.017142 52.748670 68.773060
CG 49.796455 64.158696 65.819327
CG 55.738522 64.106840 73.335799
CG 66.362009 50.165887 88.881113
CG 58.823410 44.137418 96.425172
CG 53.455030 45.310419 97.472103
CG 53.950976 61.892210 94.141070
CG 49.533408 46.026462 96.484005
CG 49.808369 32.558069 98.202349
CG 62.676906 24.516513 89.166667
CG 53.688962 37.166918 79.222804
CG 45.682254 43.160896 79.132765
CG 50.917816 44.247852 76.407748
CG 51.821197 59.807275 82.722192
CG 45.241429 79.372044 79.698438
CG 46.894184 71.662448 79.667855
CG 40.934967 64.647177 88.190558
CG 52.970286 98.541457 80.971048
CG 42.703867 114.599488 80.439389
CG 47.810176 97.843416 79.836835
CG 49.447017 95.113791 73.560685
CG 54.446083 114.662321 55.204727
CG 52.701408 110.245236 50.322476
CG 63.843924 103.733298 57.371870
CG 65.167737 94.864785 48.873031
CG 67.889511 103.906081 29.520153
CG 71.311885 121.261782 30.764216
CG 76.486456 97.558289 37.881261
CG 89.659763 87.910280 28.650094
CG 78.749021 79.971610 18.919004
CG 86.839935 88.355195 12.050638
CG 87.925926 81.467186 17.869584
CG 88.248953 75.097648 13.330737
CG 92.731750 60.583842 121.955653
50
frame
CG 93.946428 73.583366 110.189570
CG 87.341942 80.194015 119.496060
CG 89.504863 75.363534 6.823840
CG 92.133150 72.084019 15.637101
CG 86.902510 75.884456 12.382870
CG 86.206182 72.700006 12.088091
CG 89.726146 63.305876 18.375186
CG 86.832290 67.616181 12.741462
CG 84.428565 63.960175 13.321791
CG 78.906594 60.129503 24.090497
CG 74.554908 52.269588 36.588113
CG 70.692295 61.435881 26.032097
CG 69.850682 55.902715 34.895836
CG 73.898991 59.765322 47.864099
CG 71.142871 58.922112 66.367556
CG 61.079168 68.029430 61.450023
CG 59.727992 60.803592 77.767139
CG 67.429609 41.219773 83.822786
CG 63.102683 32.002799 81.473779
CG 57.900244 31.987780 70.494967
CG 63.158589 53.533672 64.425521
CG 64.530637 45.304389 72.198395
CG 54.013020 55.717232 78.198960
CG 55.358704 46.511498 81.782046
CG 48.870302 61.608744 82.993938
CG 47.234147 44.680282 91.454109
CG 48.369218 43.306291 94.941802
CG 57.829389 55.460327 98.134169
CG 47.228300 81.726603 91.729336
CG 47.493553 78.316090 90.689072
CG 43.747196 62.578115 88.676938
CG 59.417737 71.436542 77.054064
CG 42.054238 74.026573 71.251858
CG 58.066971 64.755280 60.845014
CG 45.197596 63.716259 65.321521
CG 61.663098 101.664593 51.359247
CG 47.670129 112.362594 58.581956
CG 60.836243 105.970742 68.593672
CG 57.204716 93.383193 72.937516
CG 64.465314 107.144554 57.297783
CG 61.582337 112.078093 54.158519
CG 69.278488 91.813576 52.040056
CG 78.298507 89.556682 34.301594
CG 68.913160 76.250301 14.808119
CG 81.614563 98.852670 8.839324
CG 74.050305 77.247921 22.908392
CG 86.232391 87.016448 21.346619
CG 78.629592 78.611230 16.293355
CG 87.570068 91.794307 17.511534
CG 87.835710 92.966112 30.642533
50
frame
CG 79.911417 71.121707 10.999245
CG 83.047124 66.125257 5.703388
CG 87.965246 64.707733 6.209577
CG 85.605663 67.611572 5.642366
CG 86.135040 69.857153 19.439907
CG 91.747674 69.751208 25.686417
CG 87.338404 72.556959 21.354438
CG 85.353728 64.876201 29.924147
CG 85.201784 59.733174 22.225433
CG 80.305304 61.734309 12.754850
CG 74.538785 76.048670 13.364450
CG 79.680158 62.929880 35.366271
CG 73.342696 72.503501 50.114661
CG 60.382117 66.682434 62.252943
CG 61.251690 64.748498 54.259180
CG 64.628718 47.119457 76.690840
CG 68.098274 38.035217 69.898184
CG 67.635310 40.526268 68.256270
CG 67.757593 45.774468 66.703002
CG 65.302075 48.068379 66.521538
CG 58.353857 32.007036 65.640395
CG 56.617537 46.899868 54.392965
CG 62.557693 36.248961 56.146375
CG 57.928965 57.934193 65.499532
CG 57.125343 55.396010 76.859875
CG 46.649717 88.415299 86.837328
CG 47.976067 100.642347 97.339865
CG 42.358638 85.107762 99.440591
CG 49.729994 58.341189 107.689427
CG 55.300690 64.100963 91.296313
CG 57.866514 77.746000 80.087545
CG 42.412339 68.652434 75.561344
CG 67.192427 68.007511 59.743019
CG 48.416202 72.413282 56.798730
CG 66.340950 79.789210 42.940015
CG 53.383128 64.237319 58.309058
CG 68.483242 66.722375 59.390409
CG 59.270613 85.923005 57.269156
CG 66.627482 115.536264 56.345569
CG 60.221282 92.615221 64.388519
CG 72.781638 82.053552 54.801593
CG 67.696952 90.259542 41.396641
CG 64.142538 74.629999 34.939306
CG 77.739776 91.202592 36.412836
CG 62.041069 69.757372 32.758404
CG 81.593826 94.917076 10.775941
CG 70.608976 87.034017 18.473100
CG 82.778044 100.860956 32.840354
CG 79.333876 97.662031 39.755142
CG 74.964163 110.925604 35.723375
50
frame
CG 77.029887 56.691444 25.958024
CG 80.215670 58.556174 25.411357
CG 74.934237 65.721562 19.830248
CG 82.392842 64.525315 20.527678
CG 89.652797 59.875076 14.281172
CG 81.813529 61.558505 19.667669
CG 83.127332 63.680804 27.548366
CG 84.422974 66.979676 20.434373
CG 77.655069 80.391968 26.533484
CG 83.883356 76.157356 40.654156
CG 85.574733 68.981273 41.574647
CG 68.193699 77.733540 44.910182
CG 66.224824 72.384291 40.009588
CG 73.212313 56.682471 52.354274
CG 69.020305 46.448787 64.491433
CG 69.564632 42.899539 54.965086
CG 67.876254 50.010293 50.401071
CG 62.284130 53.486962 54.579884
CG 62.532226 44.073058 53.217221
CG 65.737932 46.052558 54.096023
CG 66.931142 44.237261 56.594033
CG 60.811122 45.092005 64.359484
CG 57.347691 53.851087 64.695687
CG 52.438277 73.303015 62.646731
CG 55.690519 87.084296 69.605008
CG 60.232901 85.685848 74.818340
CG 54.145924 71.748148 82.257869
CG 50.064807 91.218500 83.793255
CG 54.465990 99.227154 76.796972
CG 44.585171 77.375251 85.339507
CG 59.933213 62.454847 78.683815
CG 63.125884 69.881356 66.211483
CG 59.462571 77.628101 62.067270
CG 60.966397 73.631827 65.210636
CG 68.994092 67.593556 65.035821
CG 63.926398 64.572433 56.818085
CG 70.020913 76.001702 45.617657
CG 66.030195 59.572130 49.452264
CG 72.468351 43.477994 43.005801
CG 72.360813 71.375349 37.266799
CG 63.312471 80.541123 38.572188
CG 67.624529 79.225968 47.064469
CG 65.170906 84.132697 51.870905
CG 66.010718 87.419869 41.647526
CG 71.675766 86.988848 40.899184
CG 68.806252 95.574706 54.112074
CG 68.322989 97.377719 48.430606
CG 68.287917 113.416127 33.476634
CG 62.251742 113.056107 34.983285
CG 72.907931 100.915357 40.440503
50
frame
CG 77.010386 52.960811 34.247058
CG 73.040889 56.650162 38.013347
CG 81.586752 50.577794 38.080223
CG 76.815707 52.463054 36.156549
CG 68.576661 60.541260 30.301503
CG 77.707326 62.523811 17.444210
CG 79.199105 65.903633 17.550877
CG 77.683512 76.441453 33.802283
CG 85.331674 69.647138 47.175879
CG 72.359888 81.466050 48.699487
CG 66.161020 77.727953 58.902007
CG 79.937643 65.392770 52.586660
CG 82.291027 43.159615 58.117467
CG 75.609167 54.994127 37.512822
CG 75.644140 57.303215 32.437048
CG 69.466717 65.778745 31.165305
CG 63.048758 54.145613 47.718831
CG 68.709449 45.241493 39.398340
CG 65.943397 52.825225 43.449082
CG 58.209383 48.562297 50.488130
CG 59.594691 70.514046 54.192678
CG 63.319715 73.885090 61.596526
CG 58.085564 96.568537 70.014072
CG 64.518297 70.766636 76.112630
CG 54.949022 72.281075 67.734855
CG 55.243948 67.882196 60.386573
CG 61.392134 89.128647 49.802774
CG 67.948176 72.886787 55.397977
CG 57.335064 74.988009 57.077383
CG 67.046248 97.807676 53.357425
CG 50.665071 99.669995 60.565697
CG 65.783412 83.095942 74.575407
CG 59.667684 62.558205 83.967066
CG 81.331617 64.063017 65.907868
CG 57.944225 68.131935 65.909267
CG 80.050422 73.863875 53.126868
CG 66.168802 42.578937 52.412014
CG 81.125054 49.778676 34.133301
CG 65.224460 49.890903 31.699765
CG 70.863700 40.989961 32.079868
CG 69.009786 48.689696 40.201839
CG 67.186429 67.435174 39.165849
CG 72.908789 91.723522 42.758736
CG 59.818754 82.399366 64.591399
CG 69.048684 116.947012 68.310479
CG 53.817110 100.142197 61.920228
CG 64.791352 116.879991 57.296310
CG 54.730280 90.993683 63.292939
CG 66.334706 100.773024 47.783823
CG 53.486540 114.931006 34.601103
50
frame
CG 75.613133 51.751950 50.245671
CG 77.777000 44.740140 43.353766
CG 67.803390 50.353392 43.834424
CG 67.902802 55.532428 35.978214
CG 74.720094 56.136393 41.255041
CG 70.075343 66.286145 53.017616
CG 69.090542 71.511921 51.816588
CG 69.771133 68.267844 48.147826
CG 63.467914 69.425808 45.964219
CG 75.488312 56.321552 50.534232
CG 83.863229 49.734683 51.457913
CG 77.392480 51.353349 50.143980
CG 75.078987 72.984988 41.008280
CG 77.574540 65.599688 41.341321
CG 74.280150 59.827750 33.948839
CG 73.894872 52.065014 32.488001
CG 76.153693 60.211853 17.645460
CG 64.401331 67.489107 33.780735
CG 60.564332 73.325357 46.387649
CG 66.738300 87.899013 47.210392
CG 58.434115 88.986984 58.599724
CG 57.727458 89.807152 59.494676
CG 63.601217 69.396556 57.644780
CG 60.104211 85.047608 54.513153
CG 68.547933 82.283868 52.863720
CG 69.050322 74.111055 52.271233
CG 63.139920 65.082572 47.172206
CG 63.447880 80.917666 29.828790
CG 70.118396 87.323816 35.782215
CG 73.791319 73.532821 46.439495
CG 75.557434 76.446884 59.398297
CG 66.441121 87.738401 56.371590
CG 71.064063 94.019539 54.191241
CG 60.809346 77.472881 69.390126
CG 80.786563 48.186818 59.638804
CG 74.070575 36.242940 52.610046
CG 73.740337 53.700675 44.961566
CG 67.304873 50.124196 44.625155
CG 75.026837 52.905615 45.949722
CG 69.130703 52.128496 42.235310
CG 75.054231 57.825522 36.192380
CG 68.027205 56.298501 49.816010
CG 62.770477 64.108296 59.618178
CG 68.028475 100.282327 54.326426
CG 51.600290 91.631625 60.510919
CG 61.356668 101.901900 67.737301
CG 51.993821 98.224908 69.585987
CG 53.181981 116.190743 58.597999
CG 45.911006 110.946589 61.698767
CG 52.251981 92.865710 71.593843
50
frame
CG 69.881495 41.534275 50.959167
CG 67.110975 53.434221 52.317668
CG 70.574939 56.842602 49.161513
CG 71.622319 58.172252 63.700219
CG 66.010836 63.438878 65.827401
CG 61.866656 59.643916 64.970559
CG 61.101035 56.091299 71.588444
CG 65.120138 48.228527 67.337767
CG 71.451988 47.235560 57.260688
CG 73.332598 44.138658 46.875636
CG 70.852681 60.196908 29.826003
CG 73.044387 64.353961 35.838412
CG 75.303845 57.629433 31.594141
CG 74.279373 55.378257 39.455458
CG 75.362963 70.082116 35.226512
CG 74.410129 72.603617 36.194208
CG 68.919849 79.343232 42.040423
CG 73.160738 94.626327 38.402214
CG 70.873469 99.161969 31.443028
CG 60.998991 100.446319 45.975784
CG 67.574457 79.414802 44.044081
CG 65.257882 86.320723 41.416841
CG 64.901429 86.147516 39.856837
CG 67.065794 83.644307 34.598739
CG 68.529508 70.289756 35.310213
CG 69.200246 93.312347 26.661150
CG 77.731496 84.766350 35.364324
CG 75.536711 74.263772 50.620272
CG 79.477609 65.044190 46.095593
CG 65.622539 74.081270 37.939920
CG 83.826932 76.580581 27.611602
CG 78.062579 66.911827 37.964048
CG 85.338118 58.804705 38.783475
CG 72.669324 59.447072 34.356405
CG 74.818367 78.352231 38.210563
CG 57.324286 62.814858 56.987482
CG 81.322719 53.684638 54.995619
CG 69.665028 47.116272 61.666650
CG 74.933776 55.889292 52.194885
CG 71.855730 70.844157 60.874377
CG 63.509405 69.501900 68.703447
CG 68.849315 83.190652 57.931838
CG 59.664952 68.959120 52.062581
CG 59.445944 60.378396 55.088791
CG 58.194636 59.147297 56.635683
CG 55.993444 100.161707 53.496369
CG 42.695934 93.530276 61.652718
CG 51.737968 96.968969 78.315574
CG 43.289905 92.318123 91.852412
CG 44.346900 112.081601 85.932095
50
frame
CG 61.532046 60.445693 54.080136
CG 64.477727 54.029770 67.805307
CG 67.432349 54.569968 78.497761
CG 60.908718 58.428996 77.566262
CG 57.971493 52.763562 79.434954
CG 66.752006 42.040621 78.010681
CG 69.035405 35.960976 67.116350
CG 66.033828 40.841528 62.056796
CG 68.365866 43.326569 57.410629
CG 61.694631 62.252635 47.151886
CG 63.100066 51.768093 47.455652
CG 68.846476 49.849453 29.853422
CG 70.203465 54.929220 34.005325
CG 70.243530 75.774752 25.449449
CG 70.524648 74.604420 41.630271
CG 71.699940 100.151784 43.961460
CG 72.629757 109.658374 49.590156
CG 70.437369 99.839202 45.737328
CG 73.393698 90.339304 44.905032
CG 76.904631 82.458061 26.613644
CG 72.947914 104.611565 15.968949
CG 73.613544 87.117458 20.182046
CG 72.103681 90.220417 18.620895
CG 75.258820 84.252546 18.722547
CG 72.485104 99.978859 18.789213
CG 77.095908 71.545107 36.225823
CG 78.382761 79.194215 34.522444
CG 80.444627 80.621309 30.321942
CG 79.264008 77.295591 31.286952
CG 93.712294 65.795882 36.222352
CG 74.651995 48.187380 30.667258
CG 84.207105 48.355439 13.934386
CG 73.812264 55.816113 15.893146
CG 88.049028 58.924764 23.817454
CG 70.376649 54.944201 39.367521
CG 87.290165 78.269984 35.201522
CG 59.617867 76.678742 54.094969
CG 73.912067 86.907804 63.728650
CG 63.309827 75.382335 82.443251
CG 67.736383 70.558746 75.399737
CG 64.779467 74.717385 65.958505
CG 56.525348 64.231868 67.733405
CG 64.150346 75.801812 64.820886
CG 52.572980 74.140363 58.913080
CG 55.411094 87.122311 54.434634
CG 43.225049 39.583776 68.860927
CG 58.314102 67.077819 77.809950
CG 38.830463 81.818052 82.576133
CG 48.265642 101.001406 81.685281
CG 41.188186 92.364807 96.683465
50
frame
CG 61.093181 66.587644 97.425590
CG 57.079544 65.323873 80.911015
CG 48.653597 55.898920 81.808897
CG 59.888272 36.558321 81.885798
CG 71.732062 27.896219 78.011287
CG 63.564345 38.915165 71.689996
CG 63.549484 45.182685 65.915415
CG 65.570929 50.936215 57.778064
CG 57.623771 50.042139 53.282757
CG 64.442095 37.666713 52.327201
CG 67.363888 45.971117 52.351746
CG 58.364937 67.626226 50.128389
CG 59.009412 79.420879 47.220290
CG 65.827310 86.048272 47.060291
CG 67.082978 102.783274 39.923252
CG 67.469675 94.088674 40.977864
CG 73.751305 84.239484 36.345829
CG 76.161735 90.582638 35.555421
CG 75.141295 105.286891 28.519954
CG 81.069677 99.595770 21.621697
CG 80.394483 86.701453 22.407095
CG 83.695711 96.002619 2.911392
CG 84.429135 101.351474 1.225788
CG 80.201270 91.061624 17.945271
CG 85.459122 81.510230 23.192741
CG 83.982300 86.920029 17.150045
CG 77.989327 81.801923 17.301527
CG 88.167695 66.759602 18.340368
CG 83.745058 61.965700 17.983560
CG 83.753778 52.799364 7.024837
CG 85.588269 60.289452 17.582565
CG 86.237775 58.505266 27.900659
CG 78.206017 50.321400 27.982365
CG 77.521411 62.088271 24.301283
CG 80.681781 64.417827 25.542232
CG 80.671260 70.239945 40.988822
CG 73.893616 86.195772 56.452207
CG 68.800118 91.553908 55.192276
CG 61.101294 97.076926 59.556685
CG 55.136808 83.635173 70.427256
CG 61.145176 75.028160 77.547887
CG 58.517794 72.201098 74.397318
CG 49.952856 75.792832 72.288971
CG 52.073943 64.748245 80.355977
CG 50.570627 60.113151 90.827047
CG 51.321253 83.594098 85.644603
CG 44.544847 76.481116 78.726118
CG 48.441720 49.965412 81.492569
CG 45.851085 57.379098 85.055540
CG 47.207313 69.398746 74.734068
50
frame
CG 45.991203 57.633849 105.796915
CG 54.068204 48.336770 114.182197
CG 68.192560 39.541759 93.288515
CG 60.080141 46.984771 76.694010
CG 50.644972 52.423535 67.604341
CG 60.214386 43.723404 61.982531
CG 60.306806 44.289300 63.127157
CG 58.624111 36.700418 63.793036
CG 66.696654 45.941348 60.589187
CG 60.654573 60.454636 61.309352
CG 52.591744 79.198302 53.078167
CG 63.589863 75.387868 68.335814
CG 64.544567 90.460601 60.250538
CG 56.007715 88.433303 62.396062
CG 62.308017 82.189296 46.139612
CG 70.918123 78.483396 34.532805
CG 68.728640 96.019171 21.952021
CG 76.759759 94.959198 14.752444
CG 83.810587 80.097479 10.880631
CG 79.562473 102.351187 16.267712
CG 88.350238 103.892217 9.909327
CG 87.227129 100.549499 24.646212
CG 91.175502 78.353473 28.556870
CG 95.165498 96.710736 1.536203
CG 89.495943 84.969113 124.152210
CG 88.915330 84.577051 0.423339
CG 96.469618 62.861881 3.201190
CG 81.135041 64.032925 122.929579
CG 88.115717 59.397238 124.744375
CG 77.476589 65.781249 15.077478
CG 88.736260 63.613570 12.901539
CG 75.220392 65.318652 18.397602
CG 94.418545 75.282187 28.624279
CG 77.417096 66.931804 44.980113
CG 81.778806 84.584018 46.771180
CG 56.807953 77.559394 46.459751
CG 82.293308 78.323392 28.928397
CG 62.099194 69.351903 48.470360
CG 71.205788 78.799158 48.748399
CG 62.749651 95.768851 53.750358
CG 45.236522 93.820480 65.682682
CG 50.148376 88.466903 83.122052
CG 50.393043 59.649567 102.067275
CG 53.404574 80.154942 101.941177
CG 43.357602 69.294850 94.802080
CG 53.060512 71.092975 92.889820
CG 42.782424 48.892907 96.611562
CG 56.236989 75.496563 79.330456
CG 46.447954 41.474720 70.364112
CG 52.105643 17.939229 71.246798
50
frame
CG 60.826089 43.914195 103.184731
CG 55.097628 51.144200 87.529536
CG 46.711298 55.792532 88.674069
CG 56.573833 46.510760 87.701311
CG 65.511141 40.488716 78.788275
CG 57.687152 45.507404 71.608630
CG 58.685425 46.274086 64.487091
CG 62.021127 55.525998 61.037213
CG 55.165014 60.078913 60.747737
CG 60.637076 59.891854 61.957377
CG 67.059151 63.643482 65.618623
CG 57.804355 77.875640 55.462441
CG 57.670298 76.187999 54.424445
CG 68.239153 79.411055 46.594142
CG 66.754624 90.633556 42.948624
CG 65.361639 93.983442 37.212304
CG 74.138838 81.094975 30.581992
CG 75.132936 88.048283 24.769740
CG 76.568509 104.270472 19.503751
CG 84.861462 91.402048 16.404494
CG 84.675309 85.176129 21.905980
CG 88.749946 92.233515 8.298968
CG 88.865987 101.694984 1.393937
CG 87.432859 84.226222 15.991105
CG 93.022881 78.056372 12.975742
CG 90.790737 73.743141 2.493457
CG 83.554055 77.731123 124.421902
CG 89.597311 71.505310 7.390241
CG 85.083288 67.387061 10.360523
CG 86.642881 63.190579 6.086636
CG 82.589624 67.488419 17.244648
CG 86.686974 69.244727 28.288705
CG 74.847002 69.179730 31.236449
CG 76.396856 77.306898 29.305114
CG 76.675344 70.379986 32.209667
CG 82.109463 73.387576 41.000702
CG 64.787114 78.481075 53.915659
CG 68.370239 88.486790 45.921500
CG 59.184452 86.098683 51.514096
CG 56.337158 75.525096 65.645769
CG 63.515328 73.393070 75.220403
CG 55.342080 79.658878 78.062628
CG 48.235791 90.555194 78.188657
CG 47.288913 70.821990 87.407702
CG 52.251545 64.840368 96.917595
CG 48.255117 65.990665 91.517516
CG 51.861919 64.889770 80.114941
CG 46.580385 34.594552 83.915934
CG 51.812974 41.314815 83.908042
CG 49.672057 58.288710 76.129085
50
frame
CG 57.046971 48.695723 67.632715
CG 60.969516 43.135040 79.153321
CG 60.478972 43.455395 84.767471
CG 52.964366 50.177240 82.779818
CG 52.372536 52.155843 87.437088
CG 59.930950 56.077508 85.582174
CG 60.625848 59.649639 78.185098
CG 56.966435 66.789639 70.560983
CG 61.511749 65.868928 67.817739
CG 59.307066 71.380644 58.270782
CG 58.474330 61.291722 56.313624
CG 66.838484 60.075722 44.530179
CG 70.687135 65.316331 44.046437
CG 65.601816 81.124806 33.517139
CG 70.108970 76.926926 36.997415
CG 74.518725 85.693182 37.609778
CG 72.306106 99.578479 41.054454
CG 74.054584 92.125479 39.504984
CG 77.119767 81.571322 38.611878
CG 80.774214 82.299956 21.018254
CG 79.729988 97.699351 8.696271
CG 83.196221 78.615700 8.712183
CG 85.169661 77.910850 9.557391
CG 85.835155 75.116219 5.662375
CG 82.238262 89.197781 4.482106
CG 85.806792 76.288766 21.768258
CG 86.484551 79.528738 21.003997
CG 90.293836 76.743079 12.164746
CG 83.391106 83.531843 16.183227
CG 92.297053 77.816909 23.904386
CG 77.463933 72.575453 26.607676
CG 81.261231 73.357653 17.792248
CG 71.502631 67.257373 20.580712
CG 84.614364 70.446586 25.115533
CG 64.712170 68.654940 36.432258
CG 78.057701 84.387113 33.266108
CG 62.530608 80.239154 50.176199
CG 70.061413 77.536890 62.219747
CG 60.171181 72.744034 78.197550
CG 63.163640 73.280270 70.335350
CG 58.658207 78.750148 65.327050
CG 56.728064 63.076829 68.128147
CG 63.379030 70.445349 69.358201
CG 53.284814 70.498759 67.001501
CG 52.993590 79.103373 62.439838
CG 46.240018 41.412044 75.869373
CG 55.644255 50.387514 85.343244
CG 47.175877 58.194668 87.126931
CG 51.431418 77.887095 86.903428
CG 47.547026 60.477032 97.472465
50
frame
CG 59.778964 42.903354 62.155008
CG 55.780151 47.724765 63.864844
CG 62.357549 46.280888 63.793865
CG 64.403035 52.120854 78.083806
CG 56.394463 64.947659 81.056637
CG 51.926957 69.497267 82.075456
CG 54.151412 73.997886 89.262370
CG 59.548157 66.488961 84.393284
CG 62.308108 66.252321 69.362395
CG 64.165554 61.249933 58.571534
CG 65.842138 73.261320 39.672250
CG 66.777331 70.917147 43.619914
CG 69.178432 68.724128 33.103198
CG 74.928854 61.188188 42.634765
CG 75.084469 77.307379 38.567730
CG 73.914687 77.642984 39.376356
CG 74.978443 74.151677 40.343990
CG 78.836147 82.255158 36.102515
CG 77.300117 87.213843 25.249431
CG 71.002192 86.631021 33.453937
CG 78.548424 64.386819 27.321250
CG 75.720702 77.375056 20.363167
CG 74.764960 73.581972 14.636559
CG 79.463103 81.629513 12.681680
CG 81.313843 68.617770 21.793349
CG 81.710997 88.643226 11.934511
CG 86.858256 85.937137 22.014553
CG 80.513563 88.961490 39.095504
CG 88.341192 80.824100 34.831329
CG 72.440064 87.785404 26.495131
CG 85.097276 84.752276 16.807851
CG 76.040144 75.622072 24.850163
CG 83.684764 79.003615 27.937761
CG 64.714004 73.991624 29.248480
CG 75.931098 84.608430 33.704088
CG 54.574147 67.030512 54.692396
CG 75.074266 67.511669 52.824811
CG 61.200660 66.071243 62.752346
CG 71.237211 71.208441 56.638896
CG 66.388921 70.536365 66.141614
CG 60.094552 61.825476 70.198055
CG 64.708383 73.944602 58.588586
CG 56.997952 53.523349 52.807312
CG 63.464526 47.795550 55.079264
CG 58.485620 39.319014 61.887850
CG 61.251062 81.287501 60.391005
CG 44.341125 78.610197 71.094469
CG 55.263555 82.038740 86.093529
CG 46.086643 59.868260 99.884407
CG 50.754163 79.502880 95.686627
50
frame
CG 60.158852 46.995854 62.752250
CG 64.701209 51.300969 58.493684
CG 54.330184 65.909112 63.354948
CG 54.509998 68.336021 59.783010
CG 65.036959 64.312978 65.053467
CG 64.024494 65.792219 76.300446
CG 59.493628 65.703683 68.657551
CG 59.295311 69.526228 66.616278
CG 58.759142 75.133584 64.154957
CG 66.902396 73.258296 62.805509
CG 72.781000 67.196089 57.888268
CG 71.157148 69.456650 47.183644
CG 71.483732 77.764881 46.409270
CG 74.307160 74.851378 42.031729
CG 74.452071 61.894463 40.930124
CG 78.282080 59.286430 37.992042
CG 80.563674 65.309101 24.764727
CG 71.466878 66.846609 28.620057
CG 73.530446 63.324015 34.662258
CG 78.205812 66.536881 29.755126
CG 68.406247 76.076681 35.407356
CG 69.343349 76.468176 37.384930
CG 75.018632 70.938852 37.054417
CG 71.305840 76.953916 33.804843
CG 78.003935 84.525231 26.720408
CG 77.738005 81.291236 34.876987
CG 74.830176 80.283820 34.573312
CG 74.885567 90.269666 22.464001
CG 74.592751 92.441788 26.329808
CG 79.211164 83.363591 34.820882
CG 78.345713 86.127266 40.632744
CG 71.319375 93.764599 36.554102
CG 71.521106 92.980927 35.104613
CG 65.532126 82.138030 51.561085
CG 73.351366 67.025606 51.152753
CG 70.772725 65.568313 49.031280
CG 65.410980 69.158980 49.601621
CG 66.166023 64.095282 47.843284
CG 66.012576 57.796902 49.587774
CG 64.030694 59.598891 47.750285
CG 73.399088 55.057539 42.872931
CG 65.935603 42.709927 55.197208
CG 63.518274 47.868588 61.069518
CG 63.996464 71.372917 56.191001
CG 57.763757 72.582915 60.749431
CG 60.670705 69.121554 70.005595
CG 61.828666 65.725651 73.496828
CG 53.668773 82.900818 71.178176
CG 52.437605 92.074516 75.423147
CG 51.262878 77.533419 86.570164
50
frame
CG 60.558146 74.083949 58.426011
CG 55.511954 70.993812 63.290763
CG 65.363030 62.234968 60.385145
CG 64.784630 65.082633 58.342990
CG 55.660655 67.768987 52.527956
CG 63.041978 66.470682 39.326801
CG 70.942187 66.023235 44.153352
CG 69.676923 72.668326 50.024479
CG 72.239019 66.952091 57.204510
CG 65.949165 77.528851 55.932367
CG 63.477839 78.670768 68.579643
CG 72.097658 74.225064 73.284025
CG 67.501289 47.049757 99.694346
CG 70.457543 64.339320 53.116519
CG 76.778734 67.093770 35.446017
CG 73.265795 63.786264 27.735344
CG 69.909342 52.383648 38.603574
CG 79.148691 43.965724 32.373707
CG 72.364916 54.479829 32.775942
CG 66.840461 56.851002 36.494576
CG 73.154221 69.921783 40.876352
CG 74.678635 65.141408 43.929682
CG 68.177687 87.810557 48.346445
CG 74.977618 78.861799 47.339202
CG 75.983653 95.088780 15.455016
CG 67.787971 81.328079 35.212325
CG 66.520652 91.510893 29.716802
CG 74.718478 75.180525 34.196070
CG 66.037545 84.206719 37.976250
CG 73.258850 97.563753 34.893280
CG 58.699555 98.494391 45.035317
CG 72.276731 88.422437 59.391376
CG 62.723664 74.195907 68.542676
CG 82.986497 82.678256 51.146512
CG 57.704640 79.139058 53.107493
CG 78.259095 80.428136 43.491918
CG 64.766939 57.994371 45.960524
CG 74.458928 58.762011 35.801276
CG 65.028971 53.241880 36.712301
CG 70.565208 36.387710 34.815224
CG 63.439043 45.306733 44.144333
CG 66.038754 58.674937 44.316391
CG 74.339370 78.333160 50.408671
CG 61.004641 59.782640 71.253073
CG 68.927654 79.120189 71.653312
CG 55.894030 67.808473 67.703758
CG 64.130787 88.193823 64.907858
CG 59.255866 64.146775 69.843514
CG 65.414788 80.789359 59.648930
CG 56.941912 95.383816 49.675878
50
frame
CG 59.291480 86.481983 61.310305
CG 64.557500 85.554678 55.571518
CG 59.910689 77.901465 48.285555
CG 63.249514 68.386146 43.992572
CG 73.816123 65.594267 36.555406
CG 69.146301 70.321215 37.519412
CG 66.561472 73.162106 38.383501
CG 72.611209 68.771872 33.804959
CG 72.761439 75.476508 44.996467
CG 74.180184 64.875337 68.785232
CG 70.664997 54.248936 83.413139
CG 59.310759 58.675953 84.429309
CG 61.099869 68.611256 70.631537
CG 68.071120 50.394583 83.914392
CG 62.213985 43.742172 87.377765
CG 69.275121 47.512687 59.043229
CG 72.072862 54.372824 39.508376
CG 64.723952 59.858180 41.415164
CG 71.167135 52.757120 42.680383
CG 75.997264 54.686532 47.390765
CG 72.032404 54.239599 45.042709
CG 70.510205 74.860840 42.729756
CG 76.757862 75.631975 25.148652
CG 71.530212 89.116283 22.430255
CG 68.448827 87.330292 32.806156
CG 73.177270 92.196469 24.219242
CG 71.293437 85.469610 29.285426
CG 57.759407 98.867196 45.850279
CG 62.699139 92.849832 48.268033
CG 53.796057 79.537480 61.517286
CG 67.667415 73.703813 61.890978
CG 65.649759 81.094357 53.275592
CG 67.229654 90.515046 53.266867
CG 60.634698 77.906208 58.812862
CG 77.706248 74.585741 52.945098
CG 64.529709 64.996400 47.053221
CG 75.213712 70.367991 33.831408
CG 68.706539 51.452246 38.235369
CG 73.368454 45.851006 35.661776
CG 69.352241 66.118442 39.018505
CG 68.034480 69.795211 42.894390
CG 68.752893 66.052773 51.511457
CG 59.797821 60.056631 57.490397
CG 70.012934 73.602566 50.110461
CG 67.823426 69.800972 56.984683
CG 71.978094 78.892078 65.639858
CG 62.284455 73.995146 59.331426
CG 67.971332 96.350819 43.154143
CG 62.642085 81.083046 42.263600
CG 75.678590 68.845152 43.540957
50
frame
CG 65.875734 88.080950 44.287171
CG 64.969238 83.096890 40.076578
CG 69.093588 91.248226 36.672171
CG 68.446497 103.400600 19.445022
CG 58.314301 116.091433 77.999528
CG 71.241483 84.317151 29.367807
CG 78.451928 59.972545 49.867368
CG 81.041698 33.414828 18.605057
CG 68.130961 43.553011 79.069577
CG 65.139354 51.416527 62.227425
CG 68.585431 63.028826 49.345776
CG 71.847976 44.896678 70.897615
CG 68.238222 45.955370 72.264748
CG 54.840202 47.469263 85.605208
CG 60.550480 54.526880 72.352342
CG 58.307367 46.709973 99.334287
CG 61.437415 47.243182 93.624348
CG 68.531380 53.998591 73.488699
CG 69.931866 60.470585 56.870350
CG 68.836604 71.372280 42.934022
CG 73.516806 69.447347 30.438608
CG 74.389587 69.316761 21.173031
CG 69.783801 62.999345 31.245385
CG 69.703732 77.999792 24.003171
CG 71.198547 73.318499 37.111036
CG 62.365086 96.567537 37.826997
CG 59.868201 95.913764 53.544400
CG 61.246799 89.363524 46.471109
CG 63.082032 78.175346 57.824474
CG 62.213318 81.695014 59.059175
CG 62.474448 83.937489 55.902123
CG 51.458319 72.246342 58.798476
CG 75.340691 67.535912 41.783728
CG 61.672081 69.309414 41.485252
CG 72.868281 71.827350 33.316625
CG 65.367944 57.834249 47.091320
CG 74.051090 57.410307 49.448058
CG 67.660990 76.430093 46.602665
CG 72.804268 90.480607 45.612763
CG 68.413403 77.267596 53.199683
CG 72.442894 65.686181 49.454642
CG 67.968763 74.987417 46.765667
CG 69.666094 68.586810 45.840323
CG 71.558338 76.744236 47.899666
CG 60.382848 67.061178 43.176063
CG 71.039540 88.925843 29.938995
CG 73.073828 74.937788 36.230621
CG 76.814467 71.130805 46.500204
CG 79.092685 69.676784 42.989633
CG 70.391731 79.473915 38.150834
50
frame
CG 74.078316 88.992564 12.587828
CG 69.946153 109.745778 12.154915
CG 66.309179 119.259802 10.108635
CG 70.380916 105.482594 11.687848
CG 112.165163 101.807875 122.087835
CG 74.284566 78.211856 82.128061
CG 63.448225 74.602706 40.493926
CG 26.463665 50.664635 106.674740
CG 76.296481 38.712878 75.856610
CG 77.145883 23.634207 74.882427
CG 65.683397 25.023901 76.580095
CG 62.673470 47.872287 52.817042
CG 63.698181 41.592802 67.582223
CG 68.270549 47.938991 68.458609
CG 63.357998 45.882423 91.325980
CG 58.228112 57.883123 84.964413
CG 58.744665 60.749686 91.702233
CG 62.247728 57.443778 96.781681
CG 62.693642 67.391343 79.850179
CG 66.848540 62.703843 51.976493
CG 66.679260 74.216175 41.737191
CG 67.058727 67.311041 34.649255
CG 67.495986 79.127426 34.806764
CG 65.847557 64.852569 49.368227
CG 58.980472 83.457628 41.501147
CG 60.736414 63.260143 57.719263
CG 62.130627 71.067773 54.049565
CG 67.975734 73.474301 59.200873
CG 58.078081 88.239340 55.143612
CG 65.073293 82.341580 41.517655
CG 60.276023 70.741918 41.314832
CG 74.402399 72.272427 38.452354
CG 50.498173 62.534603 46.345460
CG 73.529132 55.937977 37.788493
CG 56.726696 49.635509 47.531062
CG 75.923324 84.482700 36.666489
CG 60.714817 90.903449 47.925308
CG 73.085480 84.874279 59.290341
CG 65.886781 74.779181 65.456771
CG 72.584591 82.767958 51.077180
CG 69.721066 94.180344 51.022037
CG 73.043779 79.196815 46.928256
CG 75.120945 86.468055 35.033283
CG 64.172132 75.588957 27.430839
CG 82.618303 88.507736 22.984893
CG 70.753833 54.475281 31.622489
CG 78.307869 73.169766 28.319444
CG 73.625089 65.191835 24.483187
CG 78.573014 76.884802 33.485260
CG 81.137907 71.012396 44.666523
50
frame
CG 70.178113 16.863642 103.365533
CG 78.724646 112.220212 110.668634
CG 77.594572 91.740376 0.793504
CG 72.278025 88.478691 12.036049
CG 34.515830 63.408146 93.625918
CG 63.348349 80.954439 73.410917
CG 72.130639 70.626666 120.691445
CG 109.029291 78.904064 78.881655
CG 62.667819 56.137152 76.584496
CG 63.445278 50.616249 76.055451
CG 73.182283 26.491051 83.238055
CG 70.137733 18.475037 89.214058
CG 63.486820 34.999834 82.113596
CG 64.375336 49.000213 68.689224
CG 63.026361 53.683618 74.157923
CG 72.293940 56.596344 69.571231
CG 66.448918 63.752491 70.610338
CG 55.989070 72.970118 60.061657
CG 57.454768 65.419514 73.434903
CG 58.107458 63.719277 92.803169
CG 56.830496 64.249258 85.197759
CG 57.009724 72.512234 82.510390
CG 56.502787 76.007723 61.888925
CG 56.588922 71.174568 58.705542
CG 61.303734 58.597455 63.731235
CG 67.524144 58.721218 58.272122
CG 63.362407 63.955925 48.561810
CG 57.403388 64.461904 48.871417
CG 69.264490 58.074732 35.551903
CG 66.956179 62.325256 43.138020
CG 62.835092 68.712551 40.228790
CG 66.018792 61.369629 29.227674
CG 66.452742 62.832654 38.238760
CG 64.004451 81.301404 45.090260
CG 62.382887 93.667239 51.360660
CG 60.086731 73.223263 59.318160
CG 65.870194 72.421112 56.588917
CG 66.551169 85.147421 45.617408
CG 68.175416 93.694433 45.837735
CG 70.647694 90.693364 56.794838
CG 71.267741 86.607305 46.847200
CG 71.795684 96.100481 31.717755
CG 73.906281 95.333858 31.169973
CG 85.236924 76.615471 27.962778
CG 78.500825 70.090317 24.983443
CG 79.905711 76.585558 20.900410
CG 78.554347 70.814546 22.251423
CG 81.012069 71.272215 30.021417
CG 76.821772 64.777019 28.393544
CG 82.534295 65.153792 19.231807
50
frame
CG 83.176085 108.360830 102.072889
CG 71.346524 115.335845 103.067426
CG 78.045568 93.327433 95.919053
CG 76.300025 77.710073 95.963905
CG 71.012347 80.169936 66.182411
CG 73.318616 71.943812 41.293710
CG 69.999197 59.903009 121.962928
CG 63.395315 63.370020 100.343112
CG 66.910899 69.257524 50.198870
CG 62.415038 67.877025 67.805428
CG 58.558094 74.221842 75.603134
CG 65.153182 56.156837 90.735622
CG 74.384686 39.987662 85.727097
CG 69.733152 28.811205 95.559043
CG 71.117836 51.813867 55.447951
CG 58.423568 61.351738 53.162961
CG 61.914022 59.467021 51.312645
CG 69.896499 58.558816 70.050885
CG 59.529276 64.373604 76.461011
CG 47.017538 79.719804 83.069412
CG 48.178464 69.650782 99.339739
CG 47.914548 64.886981 107.557637
CG 50.835689 44.256371 119.084932
CG 58.419105 63.545385 90.677872
CG 61.473296 58.537167 69.664586
CG 53.031996 72.004475 47.787182
CG 65.904608 48.044617 50.245642
CG 71.082806 45.912385 34.431505
CG 63.597562 44.764487 41.951390
CG 60.421339 44.871874 33.633696
CG 75.232382 50.390021 32.950285
CG 55.140338 73.859305 55.332503
CG 74.823323 97.905757 43.091401
CG 53.796600 81.307134 51.926267
CG 74.136102 79.745626 46.268816
CG 58.085459 86.897426 52.371580
CG 68.138891 93.346725 48.102194
CG 59.001515 80.177486 55.139313
CG 70.657253 84.900304 39.924273
CG 65.327119 95.463086 23.395695
CG 73.594444 95.161031 26.166765
CG 79.926444 86.297548 39.130355
CG 79.442960 68.058671 34.567736
CG 81.276231 97.562738 28.480423
CG 74.689932 80.283101 30.667052
CG 90.721574 90.059048 26.322448
CG 81.354384 67.505369 26.175986
CG 84.971135 72.079977 15.068694
CG 85.810871 62.610522 7.900334
CG 75.088499 64.747736 13.924034
